%chk=cycloheptatrienyl_anion_isomer_sp.chk
# hf/3-21g* pop=full geom=connectivity

Optimisation

-1 1
 C                 -0.50273500    1.34810100    0.11357600
 C                  0.86244400    1.50679100    0.12772500
 C                  1.87515800    0.58152700   -0.06781200
 C                 -1.22982900    0.12149900    0.04797700
 C                  1.71047200   -0.79287600   -0.32677600
 C                 -0.58647000   -1.10635400    0.62492000
 C                  0.61361500   -1.55521300   -0.10266200
 H                 -1.12147300    2.25856600    0.14756800
 H                  1.21070600    2.55392900    0.25894300
 H                  2.90767000    0.96145400   -0.08892500
 H                  2.59249500   -1.29573400   -0.77211100
 H                  0.59349000   -2.59625100   -0.45397700
 C                 -2.48914300    0.04741100   -0.43888200
 H                 -3.07012800   -0.87873200   -0.42653300
 H                 -2.98886800    0.90994200   -0.88786300
 H                 -0.30871000   -0.87391100    1.69264400
 H                 -1.33626000   -1.94458000    0.66186200

 1 2 2.0 4 1.5 8 1.0
 2 3 2.0 9 1.0
 3 5 1.5 10 1.0
 4 6 1.0 13 2.0
 5 7 2.0 11 1.0
 6 7 1.0 16 1.0 17 1.0
 7 12 1.0
 8
 9
 10
 11
 12
 13 14 1.0 15 1.0
 14
 15
 16
 17

