%chk=cycloheptatrienyl_anion_sp.chk
# hf/3-21g* pop=full geom=connectivity

Optimisation

-1 1
 C                  0.52552300   -1.24455900   -0.00000400
 C                 -0.78374300   -1.57289100   -0.00005500
 C                 -1.92540800   -0.68205600    0.00009100
 C                  1.16757200    0.02176100    0.00040000
 C                 -1.92952900    0.65873500   -0.00006100
 C                  0.51092200    1.25553000    0.00011000
 C                 -0.81677400    1.56703800   -0.00010400
 H                  1.23525900   -2.10133300   -0.00020700
 H                 -1.05163000   -2.64263600   -0.00032600
 H                 -2.89825300   -1.20726900    0.00019000
 H                 -2.91536000    1.16544400   -0.00013800
 H                  1.19171500    2.13697100    0.00008400
 H                 -1.09461800    2.63227400   -0.00038400
 C                  2.64425400    0.00338300   -0.00008000
 H                  3.05034000   -0.54306700    0.89251700
 H                  3.05039600   -0.51786900   -0.90771800
 H                  3.07524500    1.03583800    0.01420100

 1 2 2.0 4 1.5 8 1.0
 2 3 1.0 9 1.0
 3 5 2.0 10 1.0
 4 6 1.5 14 1.0
 5 7 1.5 11 1.0
 6 7 2.0 12 1.0
 7 13 1.0
 8
 9
 10
 11
 12
 13
 14 15 1.0 16 1.0 17 1.0
 15
 16
 17

