%chk=AlCl3_pyramid_sp.chk
# hf/3-21g pop=full geom=connectivity

Title Card Required

0 1
 Al                 0.00000000    0.00000000    0.00000000
 Cl                -1.29085400   -1.29085400    1.29085400
 Cl                 1.29085400   -1.29085400   -1.29085400
 Cl                -1.29085400    1.29085400   -1.29085400

 1 2 1.0 3 1.0 4 1.0
 2
 3
 4

