%chk=35DMP_opt.chk
# opt freq hf/3-21g pop=full geom=connectivity

35 DMP opt

0 1
 C                 -1.14571000   -1.13114400    0.00003900
 C                 -1.20400900    0.25295700    0.00003300
 C                  0.00000000    0.93934400    0.00000000
 C                  1.20400900    0.25295700   -0.00003300
 C                  1.14571000   -1.13114400   -0.00003900
 N                  0.00000000   -1.80300700    0.00000000
 H                  0.00000000    2.01378200    0.00000000
 H                 -2.04598800   -1.71199200    0.00006200
 H                  2.04598800   -1.71199200   -0.00006200
 C                  2.52637900    0.98916200    0.00002000
 H                  2.61584000    1.61863100    0.87896800
 H                  3.35598700    0.29312300   -0.00081500
 H                  2.61519200    1.61998600   -0.87801000
 C                 -2.52637900    0.98916200   -0.00002000
 H                 -2.61519200    1.61998700    0.87800900
 H                 -2.61584000    1.61863000   -0.87896800
 H                 -3.35598700    0.29312300    0.00081600

 1 2 2.0 6 1.5 8 1.0
 2 3 2.0 14 1.0
 3 4 2.0 7 1.0
 4 5 2.0 10 1.0
 5 6 1.5 9 1.0
 6
 7
 8
 9
 10 11 1.0 12 1.0 13 1.0
 11
 12
 13
 14 15 1.0 16 1.0 17 1.0
 15
 16
 17

