%chk=35DMP_sp.chk
# hf/3-21g pop=full geom=connectivity

35 DMP sp

0 1
 C                  0.00000800    1.14571000    1.13114400
 C                  0.00000000    1.20400900   -0.25295700
 C                  0.00000000    0.00000000   -0.93934400
 C                  0.00000000   -1.20400900   -0.25295700
 C                 -0.00000800   -1.14571000    1.13114400
 N                  0.00000000    0.00000000    1.80300700
 H                  0.00000000    0.00000000   -2.01378200
 H                  0.00000600    2.04598800    1.71199200
 H                 -0.00000600   -2.04598800    1.71199200
 C                  0.00008900   -2.52637900   -0.98916200
 H                  0.87904000   -2.61581600   -1.61863100
 H                 -0.00072300   -3.35598700   -0.29312300
 H                 -0.87793800   -2.61521600   -1.61998600
 C                 -0.00008900    2.52637900   -0.98916200
 H                  0.87793800    2.61521600   -1.61998600
 H                 -0.87904000    2.61581600   -1.61863100
 H                  0.00072300    3.35598700   -0.29312300

 1 2 2.0 6 1.5 8 1.0
 2 3 2.0 14 1.0
 3 4 2.0 7 1.0
 4 5 2.0 10 1.0
 5 6 1.5 9 1.0
 6
 7
 8
 9
 10 11 1.0 12 1.0 13 1.0
 11
 12
 13
 14 15 1.0 16 1.0 17 1.0
 15
 16
 17

