%chk=TMA_opt.chk
# opt freq hf/3-21g pop=full geom=connectivity

TMA opt

0 1
 N                  0.30054647    1.71038221   -0.00000001
 C                  0.79052935    0.32444686    0.00000009
 H                  0.43226015   -0.18051586    0.87267175
 H                  0.43545455   -0.17938664   -0.87462765
 H                  1.86052756    0.32443301    0.00195625
 C                  0.78835952    2.40256469    1.20159137
 H                  0.43170532    3.41137477    1.20159130
 H                  0.43009032    1.89760196    2.07426303
 H                  1.85835773    2.40255084    1.20354752
 C                  0.79274809    2.40411604   -1.19890406
 H                  0.43767329    1.90028254   -2.07353180
 H                  0.43609388    3.41292612   -1.19890414
 H                  1.86274630    2.40410219   -1.19694791

 1 2 1.0 6 1.0 10 1.0
 2 3 1.0 4 1.0 5 1.0
 3
 4
 5
 6 7 1.0 8 1.0 9 1.0
 7
 8
 9
 10 11 1.0 12 1.0 13 1.0
 11
 12
 13

