%chk=BCl3_only_adduct_sp.chk
# hf/3-21g pop=full geom=connectivity

BCl3 only adduct

0 1
 B                  0.00000000    0.00000000    0.11465600
 Cl                 0.00000000    1.81064900   -0.37254900
 Cl                 1.56806800   -0.90532400   -0.37254900
 Cl                -1.56806800   -0.90532400   -0.37254900

 1 2 1.0 3 1.0 4 1.0
 2
 3
 4

