%chk=NH3_only_adduct_sp.chk
# hf/3-21g pop=full geom=connectivity

NH3 only adduct sp

0 1
 N                  0.00000000    0.00000000    1.74091500
 H                  0.82935600    0.47882900    2.08011100
 H                 -0.82935600    0.47882900    2.08011100
 H                  0.00000000   -0.95765800    2.08011100

 1 2 1.0 3 1.0 4 1.0
 2
 3
 4

