%nproc=20
%mem=15GB
%chk=cycloheptatrienyl_anion_isomer.chk
#p hf/3-21g opt freq gfinput gfprint pop=full

Optimisation

-1 1
 C                 -1.88544923    2.95748569    1.60579161
 C                 -0.49433991    2.98518333    1.75653220
 C                  0.37416069    4.05948059    2.18919708
 C                 -2.77370370    4.04829725    1.73200957
 C                 -0.00320495    5.30879158    2.60245985
 C                 -2.27998529    5.48008104    1.66176731
 C                 -1.45480399    5.62467620    2.88503652
 H                 -2.32378477    2.00578566    1.38892987
 H                  0.00419951    2.06831918    1.52048435
 H                  1.42516880    3.85950919    2.17206834
 H                  0.73524055    6.07639093    2.70438867
 H                 -1.84190644    5.88748821    3.84731587
 C                 -4.09066305    3.80898272    1.94393798
 H                 -4.77260353    4.62658680    2.05061855
 H                 -4.44852962    2.80242752    2.00458577
 H                 -1.65409614    5.63208303    0.80733289
 H                 -3.09877645    6.16718614    1.61310928











