%nproc=20
%mem=15GB
%chk=meth_cyclooctatetraene.chk
#p hf/3-21g opt freq gfinput gfprint pop=full

optimisation

0 1
 C                  0.84533772   -0.59354700    1.22943775
 C                  2.35945472   -0.59354700    1.22943775
 C                  1.47337372    2.91289300    1.22943775
 C                  3.01385672    0.48917100    2.06748275
 C                  2.98748872    2.91289800    1.22952175
 C                  3.67874472    1.56577500    1.22984275
 H                  0.48437872   -1.16003100    2.13094575
 H                  1.11238172    2.84748000    2.29125675
 H                  3.32682672    3.49294200    2.13080975
 H                  2.69763172   -1.59644800    1.60942475
 H                  3.79700972    0.01055600    2.71548875
 C                  0.15408572    0.75357300    1.22908575
 H                  0.04703172    1.10456000    2.29087075
 C                  0.81896972    1.83016200    0.39141575
 H                  1.56978672    1.37154900   -0.30272525
 C                  5.11186960    1.78075030    1.75093650
 H                  5.68340972    0.88866880    1.60116174
 H                  5.56727859    2.58966485    1.21880877
 H                  5.08066268    2.01328317    2.79489751
























