%nproc=20
%mem=15GB
%chk=meth_napthalene.chk
#p hf/3-21g opt freq gfinput gfprint pop=full

Methyl Napthalene opt+Freq

0 1
 C                 -3.45799635   -0.04151147    0.02431573
 C                 -2.05665074   -0.03011237    0.02905755
 C                 -1.36577929    1.18902323    0.01097430
 C                 -2.07625347    2.39675972   -0.01185048
 C                 -3.47759908    2.38536061   -0.01659247
 C                 -4.16847053    1.16622502    0.00149122
 H                  0.57802913    0.27828869    0.03314145
 H                 -3.98549203   -0.97234860    0.03812026
 H                 -1.51418793   -0.95224602    0.04648284
 C                  0.03556633    1.20042232    0.01571480
 C                 -1.38538202    3.61589531   -0.02993435
 H                 -4.02006188    3.30749423   -0.03401969
 H                 -5.23842900    1.15752154   -0.00212997
 C                  0.01596360    3.62729439   -0.02519417
 C                  0.72643777    2.41955790   -0.00236937
 H                 -1.92784482    4.53802891   -0.04736240
 H                  0.54345928    4.55813147   -0.03900163
 C                  2.26637802    2.43208437    0.00284012
 H                  2.61775041    3.29999732   -0.51500593
 H                  2.61948057    2.45195943    1.01270327
 H                  2.63186155    1.55299981   -0.48555738

















