%chk=Napthal_opt.chk
# opt hf/3-21+g geom=connectivity

Methyl_Napthalene Optimisation

0 1
 C                 -4.91223560   -0.06467531    0.02431558
 C                 -3.51088998   -0.05327620    0.02905736
 C                 -2.82001854    1.16585940    0.01097423
 C                 -3.53049272    2.37359590   -0.01185040
 C                 -4.93183833    2.36219679   -0.01659236
 C                 -5.62270977    1.14306119    0.00149122
 H                 -0.87621012    0.25512486    0.03314124
 H                 -5.43973127   -0.99551243    0.03812002
 H                 -2.96842718   -0.97540985    0.04648254
 C                 -1.41867292    1.17725849    0.01571470
 C                 -2.83962127    3.59273149   -0.02993416
 H                 -5.47430113    3.28433040   -0.03401947
 H                 -6.69266825    1.13435771   -0.00212995
 C                 -1.43827565    3.60413057   -0.02519401
 C                 -0.72780147    2.39639407   -0.00236935
 H                 -3.38208407    4.51486509   -0.04736209
 H                 -0.91077997    4.53496765   -0.03900138
 C                  0.81213877    2.40892055    0.00284010
 H                  1.16351115    3.27683356   -0.51500587
 H                  1.16524134    2.42879550    1.01270324
 H                  1.17762229    1.52983604   -0.48555750

 1 2 1.5 6 1.5 8 1.0
 2 3 1.5 9 1.0
 3 4 1.5 10 1.5
 4 5 1.5 11 1.5
 5 6 1.5 12 1.0
 6 13 1.0
 7 10 1.0
 8
 9
 10 15 1.5
 11 14 1.5 16 1.0
 12
 13
 14 15 1.5 17 1.0
 15 18 1.0
 16
 17
 18 19 1.0 20 1.0 21 1.0
 19
 20
 21

