%chk=toluene.chk
# opt freq hf/3-21g pop=full geom=connectivity

optimisation

0 1
 C                 -1.88981300   -0.00045100    0.00680600
 C                 -1.18937200   -1.19543200    0.00673800
 C                  0.19187000   -1.19309200   -0.00015500
 C                  0.89991200    0.00316700   -0.01039200
 C                  0.19110700    1.19359500   -0.01264900
 C                 -1.19545200    1.19481500   -0.00325800
 H                 -2.96180300   -0.00092400    0.01211700
 H                 -1.72057400   -2.12701200    0.01269000
 H                  0.72796400   -2.12171200   -0.00214400
 H                  0.72129600    2.12767600   -0.02465600
 H                 -1.72728000    2.12603700   -0.00733000
 C                  2.41725200   -0.00235500    0.00848800
 H                  2.78236700   -0.17378000    1.02578300
 H                  2.80988600   -0.79446700   -0.63387300
 H                  2.81511900    0.95269700   -0.34105000

 1 2 2.0 6 2.0 7 1.0
 2 3 2.0 8 1.0
 3 4 1.5 9 1.0
 4 5 1.5 12 1.0
 5 6 2.0 10 1.0
 6 11 1.0
 7
 8
 9
 10
 11
 12 13 1.0 14 1.0 15 1.0
 13
 14
 15

