%chk=BF3_only_adduct_sp.chk
# hf/3-21g pop=full geom=connectivity

Title Card Required

0 1
 B                  0.00000000    0.00000000   -1.09458200
 F                  0.00000000    1.33092100   -1.16279900
 F                 -1.15261200   -0.66546100   -1.16279900
 F                  1.15261200   -0.66546100   -1.16279900

 1 2 1.0 3 1.0 4 1.0
 2
 3
 4

