%chk=PH3_BF3_adduct_sp.chk
# hf/3-21g pop=full geom=connectivity

Title Card Required

0 1
 B                  0.00000000    0.00000000   -1.09458200
 F                  0.00000000    1.33092100   -1.16279900
 F                 -1.15261200   -0.66546100   -1.16279900
 F                  1.15261200   -0.66546100   -1.16279900
 P                  0.00000000    0.00000000    1.93199400
 H                  1.06668300    0.61585000    2.62952600
 H                 -1.06668300    0.61585000    2.62952600
 H                  0.00000000   -1.23169900    2.62952600

 1 2 1.0 3 1.0 4 1.0
 2
 3
 4
 5 6 1.0 7 1.0 8 1.0
 6
 7
 8

