%chk=BCl3_only_adduct_sp.chk
# hf/3-21g pop=full geom=connectivity

Title Card Required

0 1
 B                  0.98504000    0.01729400    0.00000600
 Cl                 1.48598900   -0.93418800    1.55813000
 Cl                 1.48635400   -0.93536500   -1.55724700
 Cl                 1.69259000    1.76137400   -0.00068700

 1 2 1.0 3 1.0 4 1.0
 2
 3
 4

