%chk=py_only_adduct_sp.chk
# hf/3-21g pop=full geom=connectivity

Title Card Required

0 1
 C                 -1.31324200    1.21862100    0.00002200
 C                 -2.68883600    1.22257800    0.00000400
 C                 -3.36355300    0.01717700   -0.00009800
 C                 -2.64166800   -1.16704900   -0.00016000
 C                 -1.27354100   -1.10939700   -0.00015400
 N                 -0.62288000    0.07078200   -0.00010200
 H                 -4.43418500   -0.00378600   -0.00017100
 H                 -0.74349300    2.11839000    0.00012100
 H                 -3.21058400    2.15507900    0.00007800
 H                 -3.12936900   -2.11776100   -0.00022700
 H                 -0.66623600   -1.98640300   -0.00011900

 1 2 2.0 6 1.5 8 1.0
 2 3 2.0 9 1.0
 3 4 1.5 7 1.0
 4 5 2.0 10 1.0
 5 6 1.5 11 1.0
 6
 7
 8
 9
 10
 11

