%chk=toluene_isomer_opt.chk
# opt freq am1 pop=full geom=connectivity

Optimisation

0 1
 C                 -1.24477500   -1.13530100   -0.06606600
 C                 -1.83348000    0.04620600   -0.10269700
 C                 -1.05472500    1.28611100    0.03111400
 C                  0.27008400    1.26713300    0.08694900
 C                  1.03491700    0.01092900    0.01849600
 C                  0.24549700   -1.29106700    0.15636900
 H                 -1.81517800   -2.03961800   -0.16176000
 H                 -2.89443700    0.12965800   -0.23498500
 H                 -1.58860900    2.21553000    0.06207200
 H                  0.83272400    2.17866700    0.15270900
 C                  2.34981100    0.01427000   -0.13327300
 H                  2.90636800    0.93071100   -0.19109500
 H                  2.91686800   -0.89469500   -0.20555600
 H                  0.39541700   -1.67913100    1.16317700
 H                  0.64287400   -2.03081200   -0.52991800

 1 2 2.0 6 1.0 7 1.0
 2 3 1.0 8 1.0
 3 4 2.0 9 1.0
 4 5 1.0 10 1.0
 5 6 1.0 11 2.0
 6 14 1.0 15 1.0
 7
 8
 9
 10
 11 12 1.0 13 1.0
 12
 13
 14
 15

