%chk=BH4_ion_sp.chk
# hf/3-21g pop=full geom=connectivity

Title Card Required

-1 1
 B                  0.00000000    0.00000000    0.00000000
 H                  0.71640300    0.71640300    0.71640300
 H                 -0.71640300    0.71640300   -0.71640300
 H                  0.71640300   -0.71640300   -0.71640300
 H                 -0.71640300   -0.71640300    0.71640300

 1 2 1.0 3 1.0 4 1.0 5 1.0
 2
 3
 4
 5

