%chk=Tol_en_opt.chk
# hf/3-21g geom=connectivity

Toluene Energy Optimisation

0 1
 C                 -1.65721450   -0.13626834    0.00000000
 C                 -0.26205450   -0.13626834    0.00000000
 C                  0.43548350    1.07148266    0.00000000
 C                 -0.26217050    2.27999166   -0.00119900
 C                 -1.65699550    2.27991366   -0.00167800
 C                 -2.35459650    1.07170766   -0.00068200
 H                 -2.20697350   -1.08858534    0.00045000
 H                  0.28745350   -1.08878134    0.00131500
 H                  1.53516350    1.07156266    0.00063400
 H                 -2.20711750    3.23219466   -0.00263100
 H                 -3.45420050    1.07189066   -0.00086200
 C                  0.50833357    3.61337962   -0.00128162
 H                  0.70730490    3.91039842    1.00722730
 H                  1.43275303    3.49110002   -0.52606382
 H                 -0.07970725    4.36508494   -0.48506578

 1 2 1.5 6 1.5 7 1.0
 2 3 1.5 8 1.0
 3 4 1.5 9 1.0
 4 5 1.5 12 1.0
 5 6 1.5 10 1.0
 6 11 1.0
 7
 8
 9
 10
 11
 12 13 1.0 14 1.0 15 1.0
 13
 14
 15

