%chk=meth_furan_isomer_sp.chk
# hf/3-21g* pop=full geom=connectivity

methyl_furan_isomer sp with HF3-31G

0 1
 C                 -1.37640800    0.74114700   -0.00028400
 C                 -0.09893700    1.20090400    0.00030500
 C                  0.80895200    0.04697000    0.00032500
 C                 -0.09251200   -1.16508200    0.00027500
 O                 -1.45576700   -0.64841100   -0.00019800
 H                 -2.35005600    1.23102600   -0.00044400
 H                  0.24113800    2.23332500    0.00064300
 C                  2.13896600    0.04431600   -0.00030900
 H                  0.01320500   -1.78786600    0.92210000
 H                  0.01407200   -1.78760100   -0.92173100
 H                  2.72360100    0.97263300   -0.00042500
 H                  2.72381200   -0.88375200   -0.00043200

 1 2 2.0 5 1.0 6 1.0
 2 3 1.0 7 1.0
 3 4 1.0 8 2.0
 4 5 1.0 9 1.0 10 1.0
 5
 6
 7
 8 11 1.0 12 1.0
 9
 10
 11
 12

