%chk=meth_furan_sp.chk
# hf/3-21g* pop=full geom=connectivity

methyl_furan sp with HF3-21G*

0 1
 C                  1.46823300    0.68597400   -0.00000300
 C                  0.17283600    1.15657300    0.00000600
 C                 -0.69358400   -0.00867900   -0.00000100
 C                  0.13842000   -1.11275600   -0.00000200
 O                  1.47355600   -0.70968400   -0.00000100
 H                  2.45477300    1.13869400    0.00001000
 H                 -0.16251000    2.18917800   -0.00001400
 H                 -0.00918100   -2.18779900    0.00001700
 C                 -2.15615900    0.01922200    0.00000000
 H                 -2.53597900    0.55561400    0.90621900
 H                 -2.53597300    0.55596900   -0.90601500
 H                 -2.57805000   -1.01618700   -0.00020500

 1 2 2.0 5 1.0 6 1.0
 2 3 1.0 7 1.0
 3 4 2.0 9 1.0
 4 5 1.0 8 1.0
 5
 6
 7
 8
 9 10 1.0 11 1.0 12 1.0
 10
 11
 12

