%chk=PH3_BH3_adduct_sp.chk
# hf/3-21g pop=full geom=connectivity

Title Card Required

0 1
 P                  0.63105400   -0.00000300   -0.00002300
 H                  1.27829200    1.04431700   -0.68572400
 H                  1.27845200   -1.11608700   -0.56126000
 H                  1.27798200    0.07183100    1.24737500
 B                 -1.58124400    0.00001100    0.00002700
 H                 -1.79803800    1.05312900    0.52870800
 H                 -1.79813000   -0.98455000    0.64746500
 H                 -1.79814900   -0.06865400   -1.17635700

 1 2 1.0 3 1.0 4 1.0
 2
 3
 4
 5 6 1.0 7 1.0 8 1.0
 6
 7
 8

