%nproc=20
%mem=15GB
%chk=cycloheptatrienyl_anion.chk
#p hf/3-21g opt freq gfinput gfprint pop=full

Optimisation

-1 1
 C                 -1.91774040    3.06448245    1.83389315
 C                 -0.50554258    3.05202781    1.84333041
 C                  0.42217886    4.14524740    1.95144066
 C                 -2.82739544    4.17391062    1.92970264
 C                  0.07988164    5.36323425    2.39384329
 C                 -2.46962622    5.38571552    2.37681518
 C                 -1.19953358    5.43030432    3.15691048
 H                 -2.37945869    2.10689135    1.71250325
 H                 -0.05920486    2.08642977    1.72799147
 H                  1.43856568    3.97813379    1.66173240
 H                  0.68719150    6.22674408    2.21941416
 H                 -3.05924226    6.25977681    2.19441510
 H                 -1.20632962    5.46948862    4.22617117
 C                 -4.28857227    3.95914955    1.49330835
 H                 -4.38696499    4.18627876    0.45233228
 H                 -4.56553264    2.93975391    1.66367701
 H                 -4.92845242    4.60219888    2.06070676












