%chk=pyridine_sp.chk
# hf/3-21g pop=full geom=connectivity

pyridine sp

0 1
 C                 -1.14532000   -0.71727000   -0.00018400
 C                 -1.19258000    0.66444100   -0.00011500
 C                 -0.00008500    1.36677600    0.00006000
 C                  1.19249600    0.66458500    0.00020800
 C                  1.14541200   -0.71713300    0.00010000
 N                  0.00008600   -1.39457900   -0.00009600
 H                 -0.00015300    2.43845600    0.00017100
 H                 -2.04613200   -1.29560200   -0.00035500
 H                 -2.13465800    1.17294800   -0.00019100
 H                  2.13451200    1.17320500    0.00041100
 H                  2.04629400   -1.29535600    0.00022000

 1 2 2.0 6 1.5 8 1.0
 2 3 2.0 9 1.0
 3 4 2.0 7 1.0
 4 5 2.0 10 1.0
 5 6 1.5 11 1.0
 6
 7
 8
 9
 10
 11

