%chk=pyridine_opt.chk
# opt freq hf/3-21g pop=full geom=connectivity

pyridine optimisation

0 1
 C                 -2.51274736   -0.06186237   -0.08556139
 C                 -1.10586936   -0.06186237   -0.08556139
 C                 -0.43917836    1.16474463   -0.08556139
 C                 -1.19325136    2.33953163   -0.08580239
 C                 -2.59645336    2.23672663   -0.08594339
 N                 -3.25598336    1.06177563   -0.08575839
 H                  0.65936564    1.20452063   -0.08651139
 H                 -3.07829436   -1.01068337   -0.08543939
 H                 -0.55113736   -1.00876337   -0.08529739
 H                 -0.70921536    3.32445563   -0.08590339
 H                 -3.22980236    3.14178963   -0.08602439

 1 2 1.5 6 1.5 8 1.0
 2 3 1.5 9 1.0
 3 4 1.5 7 1.0
 4 5 1.5 10 1.0
 5 6 1.5 11 1.0
 6
 7
 8
 9
 10
 11

