%chk=AlCl3_sp.chk
# hf/3-21g pop=full geom=connectivity

Title Card Required

0 1
 Al                 0.00000000    0.00000000    0.00000000
 Cl                 0.00000000    2.15985400    0.00000000
 Cl                -1.87048900   -1.07992700    0.00000000
 Cl                 1.87048900   -1.07992700    0.00000000

 1 2 1.0 3 1.0 4 1.0
 2
 3
 4

