%chk=AlCl3_opt.chk
# opt freq hf/3-21g geom=connectivity

Title Card Required

0 1
 Al                 1.20669399    0.13840795    0.01938404
 Cl                 3.44669399    0.13840795    0.01938404
 Cl                 0.08669398   -1.80148895    0.01938404
 Cl                 0.08669398    2.07830485    0.01938404

 1 2 1.0 3 1.0 4 1.0
 2
 3
 4

