%chk=BF4_ion_sp.chk
# hf/3-21g pop=full geom=connectivity

BF4- sp

-1 1
 B                  0.00000000    0.00000000    0.00000000
 F                 -0.80978900   -0.80978900    0.80978900
 F                  0.80978900    0.80978900    0.80978900
 F                 -0.80978900    0.80978900   -0.80978900
 F                  0.80978900   -0.80978900   -0.80978900

 1 2 1.0 3 1.0 4 1.0 5 1.0
 2
 3
 4
 5

