%chk=AlCl3_only_adduct_sp.chk
# hf/3-21g pop=full geom=connectivity

NH3 - AlCl3 Adduct Optimisation

0 1
 Al                 0.00013200    0.00002300    0.00527100
 Cl                -1.06546800    1.87736600   -0.41046700
 Cl                -1.09336900   -1.86112200   -0.41075500
 Cl                 2.15870200   -0.01603700   -0.41067400

 1 2 1.0 3 1.0 4 1.0
 2
 3
 4

