%chk=NH3_AlCl3_sp.chk
# hf/3-21g pop=full geom=connectivity

NH3 - AlCl3 Adduct Optimisation

0 1
 Al                 0.00013200    0.00002300    0.00527100
 Cl                -1.06578700    1.87718500   -0.41046700
 Cl                -1.09305300   -1.86130800   -0.41075500
 Cl                 2.15870500   -0.01567100   -0.41067400
 N                  0.00006400   -0.00035800    1.98164100
 H                 -0.95234000    0.00626900    2.33403400
 H                  0.47042800   -0.82858600    2.33393000
 H                  0.48204900    0.82101400    2.33426000

 1 2 1.0 3 1.0 4 1.0 5 1.0
 2
 3
 4
 5 6 1.0 7 1.0 8 1.0
 6
 7
 8

