%chk=NH3_only_adduct_sp.chk
# hf/3-21g pop=full geom=connectivity

Title Card Required

0 1
 N                  0.75701200    0.00005900   -0.00000500
 H                  1.08727300    0.33486100   -0.89340200
 H                  1.08536600   -0.94178500    0.15659400
 H                  1.08651700    0.60597200    0.73726900

 1 2 1.0 3 1.0 4 1.0
 2
 3
 4

