%chk=meth_pyridine_isomer_opt.chk
# opt freq am1 pop=full geom=connectivity

meth-pyridine_isomer opt freq with AM1

0 1
 C                  0.00262800    0.90535600    0.00000000
 C                  0.00365100    0.18578200    1.20207700
 C                  0.00365100   -1.21871100    1.14907400
 C                  0.00365100   -1.21871100   -1.14907400
 C                  0.00365100    0.18578200   -1.20207700
 H                  0.00551700    0.70538300    2.16895000
 H                  0.00442400   -1.81749200    2.07749200
 H                  0.00442400   -1.81749200   -2.07749200
 N                  0.00339100   -1.92212600    0.00000000
 C                 -0.01255100    2.38474100    0.00000000
 H                 -0.86018013    0.48642777   -1.75733180
 H                  0.86838625    0.48648206   -1.75589324
 H                 -0.87547593    2.91091525    0.35128509
 H                  0.83939586    2.92851043   -0.35128529

 1 2 1.0 5 1.0 10 2.0
 2 3 2.0 6 1.0
 3 7 1.0 9 1.0
 4 5 1.0 8 1.0 9 2.0
 5 11 1.0 12 1.0
 6
 7
 8
 9
 10 13 1.0 14 1.0
 11
 12
 13
 14

