%chk=Hydrogen_ion_sp.chk
# hf/3-21g pop=full geom=connectivity

Title Card Required

1 1
 H                  0.00000000    0.00000000    0.00000000

 1

