%chk=Hydrogen_ion_opt.chk
# opt freq hf/3-21g pop=full geom=connectivity

Title Card Required

1 1
 H                 -0.36612021    0.70491799    0.00000000

 1

