%chk=AlH3_sp.chk
# hf/3-21g pop=full geom=connectivity

sp calc

0 1
 Al                 0.00000000    0.00000000    0.00000000
 H                  0.00000000    1.59949500    0.00000000
 H                  1.38520300   -0.79974800    0.00000000
 H                 -1.38520300   -0.79974800    0.00000000

 1 2 1.0 3 1.0 4 1.0
 2
 3
 4

