%nproc=20
%mem=15GB
%chk=toluene_isomer.chk
#p hf/3-21g opt freq gfinput gfprint pop=full

optimisation

0 1
 C                 -2.68334096    1.32463622    4.82388174
 C                 -1.54928998    1.28515565    5.57530322
 C                 -0.26857736    2.02168394    5.13616006
 C                 -0.28732339    2.82350554    4.04937413
 C                 -1.54873074    2.89518951    3.17909040
 C                 -2.68177864    1.87384315    3.38007211
 H                 -3.59774138    0.95680692    5.24038324
 H                 -1.54926064    0.73824169    6.49496899
 H                  0.63202464    1.91169699    5.70336276
 H                  0.57078141    3.41273761    3.80166115
 C                 -1.66060508    3.85179241    2.22569538
 H                 -0.87102404    4.55963482    2.08279369
 H                 -2.53851668    3.89923713    1.61584275
 H                 -2.54826008    1.06214492    2.69580696
 H                 -3.62072007    2.34791182    3.18373594












