%chk=meth_cyclooctatetraene_isomer.chk
# opt freq hf/3-21g geom=connectivity

Optimisation

0 1
 C                  0.84533772   -0.59354700    1.22943775
 C                  2.35945472   -0.59354700    1.22943775
 C                  1.47337372    2.91289300    1.22943775
 C                  3.01385672    0.48917100    2.06748275
 C                  2.98748872    2.91289800    1.22952175
 C                  3.67874472    1.56577500    1.22984275
 H                  0.48437872   -1.16003100    2.13094575
 H                  1.11238172    2.84748000    2.29125675
 H                  3.31519574    3.44965092    2.09520323
 H                  2.69763172   -1.59644800    1.60942475
 H                  3.79700972    0.01055600    2.71548875
 C                  0.15408572    0.75357300    1.22908575
 H                  0.04703172    1.10456000    2.29087075
 C                  0.81896972    1.83016200    0.39141575
 H                  1.56978672    1.37154900   -0.30272525
 C                  5.11186960    1.78075030    1.75093650
 H                  5.56727859    2.58966485    1.21880877
 H                  5.08066268    2.01328317    2.79489751
 H                  3.31529180    3.44928761    0.36365148

 1 2 1.0 7 1.0 12 2.0
 2 4 2.0 10 1.0
 3 5 1.0 8 1.0 14 2.0
 4 6 1.0 11 1.0
 5 6 1.0 9 1.0 19 1.0
 6 16 2.0
 7
 8
 9
 10
 11
 12 13 1.0 14 1.0
 13
 14 15 1.0
 15
 16 17 1.0 18 1.0
 17
 18
 19

