%chk=methToluene.chk
# hf/3-21g* pop=full geom=connectivity

Methyl Napthalene sp

0 1
 C                 -2.69768100   -1.03898900   -0.00000100
 C                 -1.40883700   -1.51314200   -0.00000400
 C                 -0.30851200   -0.61246100   -0.00000300
 C                 -0.55961800    0.78324600    0.00000100
 C                 -1.90318200    1.24656700    0.00000400
 C                 -2.94764300    0.35470100    0.00000200
 H                  1.21393000   -2.16337900   -0.00001000
 H                 -3.55044900   -1.73381500   -0.00000200
 H                 -1.20507600   -2.59433500   -0.00000600
 C                  1.03457800   -1.07747200   -0.00000600
 C                  0.54320300    1.68156400    0.00000200
 H                 -2.08697100    2.33134600    0.00000700
 H                 -3.98855300    0.71015700    0.00000400
 C                  1.82966800    1.20770100   -0.00000100
 C                  2.08818300   -0.19106600   -0.00000400
 H                  0.34089900    2.76321900    0.00000400
 H                  2.68430400    1.90071900   -0.00000100
 C                  3.49382300   -0.65639300    0.00000400
 H                  4.02703900   -0.27351600   -0.90588400
 H                  4.02688900   -0.27390500    0.90614700
 H                  3.55410700   -1.77202700   -0.00022900

 1 2 2.0 6 1.5 8 1.0
 2 3 1.5 9 1.0
 3 4 1.5 10 1.5
 4 5 1.5 11 1.5
 5 6 2.0 12 1.0
 6 13 1.0
 7 10 1.0
 8
 9
 10 15 2.0
 11 14 2.0 16 1.0
 12
 13
 14 15 1.5 17 1.0
 15 18 1.0
 16
 17
 18 19 1.0 20 1.0 21 1.0
 19
 20
 21

