%chk=AlCl3_only_adduct_sp.chk
# hf/3-21g pop=full geom=connectivity

Title Card Required

0 1
 Al                 0.33027300    0.00142800    0.00054400
 Cl                 0.74057700   -1.30025500   -1.71908700
 Cl                 0.72281800    2.14484600   -0.26692900
 Cl                 0.73130600   -0.83547800    1.99020000

 1 2 1.0 3 1.0 4 1.0
 2
 3
 4

