%chk=nf3_sp.chk
# hf/3-21g pop=full geom=connectivity

Title Card Required

0 1
 N                  0.00000000    0.00000000    0.49649400
 F                  0.00000000    1.25497500   -0.12872100
 F                 -1.08684100   -0.62748800   -0.12872100
 F                  1.08684100   -0.62748800   -0.12872100

 1
 2
 3
 4

