%chk=nf3H_ion.chk
# opt freq hf/3-21g pop=full geom=connectivity

Title Card Required

1 1
 N                  0.20218579    1.49180319    0.00000000
 H                 -0.79781421    1.49181564    0.00000000
 F                  0.62883743    0.28500230    0.00000000
 F                  0.62885997    2.09519566   -1.04511562
 F                  0.62885997    2.09519566    1.04511562

 1 2 1.0 3 1.0 4 1.0 5 1.0
 2
 3
 4
 5

