%chk=26DMP_BCl3_adduct_opt.chk
# opt freq hf/3-21g pop=full geom=connectivity

Title Card Required

0 1
 C                 -1.97633009   -0.37417923   -0.05871950
 C                 -0.55033547   -0.38414620   -0.06090677
 C                  0.11635553    0.84246080   -0.06090677
 C                 -0.63771747    2.01724780   -0.06114777
 C                 -2.04091947    1.91444280   -0.06128877
 N                 -2.68491521    0.75001953   -0.06503795
 H                  1.21489953    0.88223680   -0.06185677
 H                  0.00439653   -1.33104720   -0.06064277
 H                 -0.15368147    3.00217180   -0.06124877
 C                 -2.76481043   -1.69701660   -0.05854941
 H                 -2.51583144   -2.26075181   -0.93325626
 H                 -2.51246894   -2.26253137    0.81404260
 H                 -3.81397097   -1.48688051   -0.05631639
 C                 -2.92386892    3.17618772   -0.06140169
 H                 -3.54769556    3.17488843   -0.93073399
 H                 -3.53552673    3.18356036    0.81650512
 H                 -2.30186206    4.04678096   -0.07005467
 B                 -4.55103748    0.93664151    0.23952718
 Cl                -5.03534461   -0.03981857    1.75902457
 Cl                -5.49201905    0.29148161   -1.24210111
 Cl                -4.96240595    2.74193681    0.50141430

 1 2 1.5 6 1.5 10 1.0
 2 3 1.5 8 1.0
 3 4 1.5 7 1.0
 4 5 1.5 9 1.0
 5 6 1.5 14 1.0
 6 18 1.0
 7
 8
 9
 10 11 1.0 12 1.0 13 1.0
 11
 12
 13
 14 15 1.0 16 1.0 17 1.0
 15
 16
 17
 18 19 1.0 20 1.0 21 1.0
 19
 20
 21

