%chk=BF3_opt.chk
# opt freq hf/3-21g pop=full geom=connectivity

BF3 opt

0 1
 B                  0.81404371   -0.61207394    0.00000000
 F                  0.08404371   -1.87647102    0.00000000
 F                  0.08404371    0.65232315    0.00000000
 F                  2.27404371   -0.61207394    0.00000000

 1 2 1.0 3 1.0 4 1.0
 2
 3
 4

