%chk=26DMP_ion_opt.chk
# opt freq hf/3-21g pop=full geom=connectivity

2,6 DMP ion opt

1 1
 C                  0.00000000   -1.19671000    0.22137300
 C                  0.00000000   -1.20449800   -1.15067200
 C                  0.00000000    0.00000000   -1.83731200
 C                  0.00000000    1.20449800   -1.15067200
 C                  0.00000000    1.19671000    0.22137300
 N                  0.00000000    0.00000000    0.84805400
 H                  0.00000000    0.00000000   -2.90846300
 H                  0.00000100   -2.13667700   -1.67222300
 H                 -0.00000100    2.13667700   -1.67222300
 C                  0.00002300    2.43525800    1.07505300
 H                  0.88185800    2.45988600    1.70619600
 H                 -0.00017200    3.31889600    0.45543000
 H                 -0.88158600    2.45972000    1.70651500
 C                 -0.00002300   -2.43525800    1.07505300
 H                  0.88158600   -2.45972000    1.70651500
 H                 -0.88185800   -2.45988600    1.70619600
 H                  0.00017200   -3.31889600    0.45543000
 H                  0.00000000    0.00000000    1.85508700

 1 2 2.0 6 1.5 14 1.0
 2 3 1.5 8 1.0
 3 4 1.5 7 1.0
 4 5 2.0 9 1.0
 5 6 1.5 10 1.0
 6 18 1.0
 7
 8
 9
 10 11 1.0 12 1.0 13 1.0
 11
 12
 13
 14 15 1.0 16 1.0 17 1.0
 15
 16
 17
 18

