%chk=meth_cyclobutadiene.chk
# opt freq hf/3-21g geom=connectivity

Optimisation

0 1
 C                  0.16939890    1.05464474    0.00000000
 C                  1.71264590    1.05464474    0.00000000
 C                  1.71258490    2.59783474    0.00000000
 C                  0.16935590    2.59783174   -0.00027000
 H                 -0.28359510    0.60153174   -0.90642000
 H                  2.16555390    0.60183174   -0.90661500
 H                  2.16551090    3.05058874   -0.90665600
 C                 -0.45866089    3.22561270   -1.25847744
 H                 -1.51323872    3.04460063   -1.25896188
 H                 -0.27779382    4.28021533   -1.25910873
 H                 -0.02129925    2.78820741   -2.13157046

 1 2 2.0 4 1.0 5 1.0
 2 3 1.0 6 1.0
 3 4 2.0 7 1.0
 4 8 1.0
 5
 6
 7
 8 9 1.0 10 1.0 11 1.0
 9
 10
 11

