%chk=meth_cyclooctatetraene.chk
# opt freq am1 geom=connectivity

Title Card Required

0 1
 C                 -1.73736400   -1.27668300    0.04346700
 C                 -2.27092700   -0.05266800    0.04642200
 C                 -1.72964000    1.28195500   -0.03420500
 C                 -0.39374400   -1.79704800   -0.03692600
 C                 -0.49809000    1.79888600   -0.03732300
 C                  0.83641500   -1.27826000   -0.04935000
 C                  0.84467000    1.27792900    0.02466000
 C                  1.40568800    0.05815200    0.00618600
 H                 -2.47836000   -2.10849400    0.11475200
 H                 -3.38437400   -0.02669900    0.11760900
 H                 -2.54965100    2.03614000   -0.09623100
 H                 -0.41669100   -2.91215100   -0.09559800
 H                 -0.47240500    2.91396100   -0.09935700
 H                  1.64396800   -2.04864400   -0.11732900
 H                  1.57044200    2.12512200    0.07720500
 C                  2.90730500    0.00258400    0.03399100
 H                  3.25109100   -0.57160600    0.93219000
 H                  3.28197200   -0.51638400   -0.88250500
 H                  3.36812400    1.01967400    0.07392900

 1 2 2.0 4 1.5 9 1.0
 2 3 1.5 10 1.0
 3 5 2.0 11 1.0
 4 6 2.0 12 1.0
 5 7 1.5 13 1.0
 6 8 1.0 14 1.0
 7 8 2.0 15 1.0
 8 16 1.0
 9
 10
 11
 12
 13
 14
 15
 16 17 1.0 18 1.0 19 1.0
 17
 18
 19

