%chk=BCl3_only_adduct_sp.chk
# hf/3-21g pop=full geom=connectivity

Title Card Required

0 1
 B                  1.04627600    0.00004200   -0.04220500
 Cl                 1.69290400   -1.49827800   -1.02408200
 Cl                 1.70137500   -0.00034500    1.73661400
 Cl                 1.69299200    1.49861500   -1.02350800

 1 2 1.0 3 1.0 4 1.0
 2
 3
 4

