%chk=MX3_planar_ion_sp.chk
# hf/3-21g pop=full geom=connectivity

Title Card Required

-1 2
 Al                 0.00000000    0.00000000    0.67729200
 Cl                 0.00000000    2.13133200   -0.17264300
 Cl                 1.84578800   -1.06566600   -0.17264300
 Cl                -1.84578800   -1.06566600   -0.17264300

 1 2 1.0 3 1.0 4 1.0
 2
 3
 4

