%chk=MX3_planar_ion_opt.chk
# opt freq uhf/3-21g pop=full geom=connectivity

Title Card Required

-1 2
 Al                 0.00000000    0.00000000   -0.49140000
 Cl                 0.00000000    2.40602500    0.12420000
 Cl                -2.08367900   -1.20301300    0.12420000
 Cl                 2.08367900   -1.20301300    0.12420000

 1
 2
 3
 4

