%chk=anion_isomer.chk
# opt freq hf/3-21g geom=connectivity

Optimisation

-1 1
 C                 -1.88544923    2.95748569    1.60579161
 C                 -0.49433991    2.98518333    1.75653220
 C                  0.37416069    4.05948059    2.18919708
 C                 -2.77370370    4.04829725    1.73200957
 C                 -0.00320495    5.30879158    2.60245985
 C                 -2.27998529    5.48008104    1.66176731
 C                 -1.45480399    5.62467620    2.88503652
 H                 -2.32378477    2.00578566    1.38892987
 H                  0.00419951    2.06831918    1.52048435
 H                  1.42516880    3.85950919    2.17206834
 H                  0.73524055    6.07639093    2.70438867
 H                 -1.84190644    5.88748821    3.84731587
 C                 -4.09066305    3.80898272    1.94393798
 H                 -4.77260353    4.62658680    2.05061855
 H                 -4.44852962    2.80242752    2.00458577
 H                 -1.65409614    5.63208303    0.80733289
 H                 -3.09877645    6.16718614    1.61310928

 1 2 2.0 4 1.5 8 1.0
 2 3 1.5 9 1.0
 3 5 2.0 10 1.0
 4 6 1.0 13 2.0
 5 7 1.0 11 1.0
 6 7 1.0 16 1.0 17 1.0
 7 12 1.0
 8
 9
 10
 11
 12
 13 14 1.0 15 1.0
 14
 15
 16
 17

