%chk=meth_cyclobutadiene_sp.chk
# hf/3-21g* pop=full geom=connectivity

Optimisation

0 1
 C                 -0.68293200   -1.00069400    0.00004500
 C                 -1.61509600   -0.01955400   -0.00002100
 C                 -0.50586900    1.04559600    0.00002500
 C                  0.43604200    0.06871500   -0.00000700
 H                 -0.63431700   -2.07636400    0.00007500
 H                 -2.68827300    0.07480500   -0.00005100
 H                 -0.55102600    2.12150700    0.00002600
 C                  1.87829700   -0.06167000   -0.00003200
 H                  2.21749200   -0.62746500   -0.90605000
 H                  2.37591600    0.94025300   -0.00025100
 H                  2.21755200   -0.62709400    0.90619600

 1 2 2.0 4 1.0 5 1.0
 2 3 1.0 6 1.0
 3 4 2.0 7 1.0
 4 8 1.0
 5
 6
 7
 8 9 1.0 10 1.0 11 1.0
 9
 10
 11

