%chk=meth_cyclobutadiene_isomer_sp.chk
# hf/3-21g* pop=full geom=connectivity

Optimisation

0 1
 C                  0.51838600   -1.05579800   -0.00026800
 C                  1.50867800   -0.12357200    0.00029900
 C                  0.53173200    1.05302400   -0.00015400
 C                 -0.55661100   -0.02747300    0.00001000
 H                  0.46068000   -2.13474100   -0.00044400
 H                  2.58785100   -0.12795000    0.00058000
 H                  0.55964000    1.68531800   -0.91203200
 C                 -1.87603300   -0.02370200    0.00013500
 H                 -2.45891700    0.90650700    0.00021800
 H                 -2.46557900   -0.94976100    0.00011500
 H                  0.55941500    1.68574800    0.91142900

 1 2 2.0 4 1.0 5 1.0
 2 3 1.0 6 1.0
 3 4 1.0 7 1.0 11 1.0
 4 8 2.0
 5
 6
 7
 8 9 1.0 10 1.0
 9
 10
 11

