%chk=BH3_sp.chk
# hf/3-21g pop=full geom=connectivity

Title Card Required

0 1
 B                  0.00000000    0.00000000    0.00000000
 H                  0.00000000    1.18819900    0.00000000
 H                 -1.02901000   -0.59409900    0.00000000
 H                  1.02901000   -0.59409900    0.00000000

 1 2 1.0 3 1.0 4 1.0
 2
 3
 4

