%chk=NH3_AlH3_sp.chk
# hf/3-21g pop=full geom=connectivity

Title Card Required

0 1
 N                  0.00000000    0.00000000   -1.25450100
 H                  0.82489600    0.47625400   -1.59389900
 H                 -0.82489600    0.47625400   -1.59389900
 H                  0.00000000   -0.95250800   -1.59389900
 Al                 0.00000000    0.00000000    0.79324200
 H                  0.00000000    1.59410700    1.08368400
 H                 -1.38053700   -0.79705300    1.08368400
 H                  1.38053700   -0.79705300    1.08368400

 1 2 1.0 3 1.0 4 1.0 5 1.0
 2
 3
 4
 5 6 1.0 7 1.0 8 1.0
 6
 7
 8

