%chk=BCl3_opt.chk
# opt freq hf/3-21g pop=full geom=connectivity

BCl3 opt

0 1
 B                  0.84683060    0.05459269    0.00000000
 Cl                -0.08816940    1.67406019    0.00000000
 Cl                -0.08816940   -1.56487481    0.00000000
 Cl                 2.71683060    0.05459269    0.00000000

 1 2 1.0 3 1.0 4 1.0
 2
 3
 4

