%chk=PH3_BCl3_adduct_sp.chk
# hf/3-21g pop=full geom=connectivity

Title Card Required

0 1
 B                  0.00000000    0.00000000   -0.19805700
 P                  0.00000000    0.00000000    1.86311800
 Cl                 0.00000000    1.81223000   -0.67095700
 Cl                 1.56943700   -0.90611500   -0.67095700
 Cl                -1.56943700   -0.90611500   -0.67095700
 H                  0.00000000   -1.28104900    2.42076900
 H                  1.10942100    0.64052500    2.42076900
 H                 -1.10942100    0.64052500    2.42076900

 1 3 1.0 4 1.0 5 1.0
 2 6 1.0 7 1.0 8 1.0
 3
 4
 5
 6
 7
 8

