%chk=PH3_only_adduct_opt.chk
# hf/3-21g pop=full geom=connectivity

Title Card Required

0 1
 P                  0.00000000    0.00000000    1.86311800
 H                  0.00000000   -1.28104900    2.42076900
 H                  1.10942100    0.64052500    2.42076900
 H                 -1.10942100    0.64052500    2.42076900

 1 2 1.0 3 1.0 4 1.0
 2
 3
 4

