%chk=meth_thiophene_isomer_sp.chk
# hf/3-21g* pop=full geom=connectivity

methyl_thiophene_isomer sp with HF3-21G*

0 1
 C                 -0.94594700    1.17147000   -0.00016700
 C                  0.39842600    1.27014000    0.00105300
 C                  1.09434100   -0.01739800    0.00049300
 C                  0.12151900   -1.15098600    0.00168900
 S                 -1.52088200   -0.42316100   -0.00088700
 H                 -1.65000600    2.00555900   -0.00041300
 H                  0.96867500    2.20381400    0.00199700
 C                  2.42108600   -0.17055300   -0.00137800
 H                  0.23737700   -1.78860600    0.90983400
 H                  0.23889600   -1.79278600   -0.90324000
 H                  2.89593200   -1.15948800   -0.00256600
 H                  3.10669400    0.68604200   -0.00156600

 1 2 2.0 5 1.0 6 1.0
 2 3 1.0 7 1.0
 3 4 1.0 8 2.0
 4 5 1.0 9 1.0 10 1.0
 5
 6
 7
 8 11 1.0 12 1.0
 9
 10
 11
 12

