%chk=meth_thiophene_opt.chk
# opt freq am1 pop=full geom=connectivity

methyl_thiophene opt freq with AM1

0 1
 C                 -1.01176427    1.29327068   -0.01677404
 C                  0.34564723    1.30252765   -0.09599290
 C                  0.92725232    2.73816075    0.00232939
 C                 -0.04629690    3.67649813    0.14604687
 S                 -1.64822766    2.94590105   -0.04689457
 H                 -1.61172137    0.41042277    0.05759697
 H                  0.94392136    0.42173211   -0.20166823
 H                  0.13071318    4.71160282    0.35129236
 C                  2.43246224    3.06065716   -0.04170616
 H                  2.83066934    3.04083129    0.95123797
 H                  2.93585914    2.33225662   -0.64247584
 H                  2.57668593    4.03295577   -0.46447673

 1 2 2.0 5 1.0 6 1.0
 2 3 1.0 7 1.0
 3 4 2.0 9 1.0
 4 5 1.0 8 1.0
 5
 6
 7
 8
 9 10 1.0 11 1.0 12 1.0
 10
 11
 12

