%chk=cyclooctatetraene.chk
# opt freq am1 gfinput gfprint pop=full

optimisation

0  1
C           0.00000         0.70300         0.00000
C           0.75320         0.00000         0.00000
C           1.75740         0.00000         0.00000
C           0.00000         1.70720         0.00000
C           2.41020         0.75320         0.00000
C           0.65280         2.41020         0.00000
C           2.41020         1.75740         0.00000
C           1.65700         2.41020         0.00000
H          -0.94650         0.29170         0.00000
H           0.37476        -0.96011         0.00000
H           2.18606        -0.93876         0.00000
H          -0.96059         2.08442         0.00000
H           3.37711         0.39250         0.00000
H           0.24030         3.35617         0.00000
H           3.34896         2.18606         0.00000
H           2.01770         3.37711         0.00000


