%chk=BH3_ion_planar_sp.chk
# uhf/3-21g pop=full geom=connectivity

Title Card Required

-1 2
 B                  0.00000000    0.00000000    0.00000000
 H                  0.00000000    1.21925800    0.00000000
 H                  1.05590800   -0.60962900    0.00000000
 H                 -1.05590800   -0.60962900    0.00000000

 1 2 1.0 3 1.0 4 1.0
 2
 3
 4

