 Entering Gaussian System, Link 0=g16
 Input=/home/gaussian/Summer_Internship/Acid_Base_adduct/Acid/BF3/MX3-/BCl3_ion_pyramid_sp.com
 Output=/home/gaussian/Summer_Internship/Acid_Base_adduct/Acid/BF3/MX3-/BCl3_ion_pyramid_sp.log
 Initial command:
 /usr/local/g16/l1.exe "/home/gaussian/tmp/Gau-218661.inp" -scrdir="/home/gaussian/tmp/"
 Entering Link 1 = /usr/local/g16/l1.exe PID=    218664.
  
 Copyright (c) 1988-2017, Gaussian, Inc.  All Rights Reserved.
  
 This is part of the Gaussian(R) 16 program.  It is based on
 the Gaussian(R) 09 system (copyright 2009, Gaussian, Inc.),
 the Gaussian(R) 03 system (copyright 2003, Gaussian, Inc.),
 the Gaussian(R) 98 system (copyright 1998, Gaussian, Inc.),
 the Gaussian(R) 94 system (copyright 1995, Gaussian, Inc.),
 the Gaussian 92(TM) system (copyright 1992, Gaussian, Inc.),
 the Gaussian 90(TM) system (copyright 1990, Gaussian, Inc.),
 the Gaussian 88(TM) system (copyright 1988, Gaussian, Inc.),
 the Gaussian 86(TM) system (copyright 1986, Carnegie Mellon
 University), and the Gaussian 82(TM) system (copyright 1983,
 Carnegie Mellon University). Gaussian is a federally registered
 trademark of Gaussian, Inc.
  
 This software contains proprietary and confidential information,
 including trade secrets, belonging to Gaussian, Inc.
  
 This software is provided under written license and may be
 used, copied, transmitted, or stored only in accord with that
 written license.
  
 The following legend is applicable only to US Government
 contracts under FAR:
  
                    RESTRICTED RIGHTS LEGEND
  
 Use, reproduction and disclosure by the US Government is
 subject to restrictions as set forth in subparagraphs (a)
 and (c) of the Commercial Computer Software - Restricted
 Rights clause in FAR 52.227-19.
  
 Gaussian, Inc.
 340 Quinnipiac St., Bldg. 40, Wallingford CT 06492
  
  
 ---------------------------------------------------------------
 Warning -- This program may not be used in any manner that
 competes with the business of Gaussian, Inc. or will provide
 assistance to any competitor of Gaussian, Inc.  The licensee
 of this program is prohibited from giving any competitor of
 Gaussian, Inc. access to this program.  By using this program,
 the user acknowledges that Gaussian, Inc. is engaged in the
 business of creating and licensing software in the field of
 computational chemistry and represents and warrants to the
 licensee that it is not a competitor of Gaussian, Inc. and that
 it will not use this program in any manner prohibited above.
 ---------------------------------------------------------------
  

 Cite this work as:
 Gaussian 16, Revision B.01,
 M. J. Frisch, G. W. Trucks, H. B. Schlegel, G. E. Scuseria, 
 M. A. Robb, J. R. Cheeseman, G. Scalmani, V. Barone, 
 G. A. Petersson, H. Nakatsuji, X. Li, M. Caricato, A. V. Marenich, 
 J. Bloino, B. G. Janesko, R. Gomperts, B. Mennucci, H. P. Hratchian, 
 J. V. Ortiz, A. F. Izmaylov, J. L. Sonnenberg, D. Williams-Young, 
 F. Ding, F. Lipparini, F. Egidi, J. Goings, B. Peng, A. Petrone, 
 T. Henderson, D. Ranasinghe, V. G. Zakrzewski, J. Gao, N. Rega, 
 G. Zheng, W. Liang, M. Hada, M. Ehara, K. Toyota, R. Fukuda, 
 J. Hasegawa, M. Ishida, T. Nakajima, Y. Honda, O. Kitao, H. Nakai, 
 T. Vreven, K. Throssell, J. A. Montgomery, Jr., J. E. Peralta, 
 F. Ogliaro, M. J. Bearpark, J. J. Heyd, E. N. Brothers, K. N. Kudin, 
 V. N. Staroverov, T. A. Keith, R. Kobayashi, J. Normand, 
 K. Raghavachari, A. P. Rendell, J. C. Burant, S. S. Iyengar, 
 J. Tomasi, M. Cossi, J. M. Millam, M. Klene, C. Adamo, R. Cammi, 
 J. W. Ochterski, R. L. Martin, K. Morokuma, O. Farkas, 
 J. B. Foresman, and D. J. Fox, Gaussian, Inc., Wallingford CT, 2016.
 
 ******************************************
 Gaussian 16:  EM64L-G16RevB.01 20-Dec-2017
                17-Jul-2025 
 ******************************************
 %chk=BCl3_ion_pyramid_sp.chk
 -------------------------------------
 # hf/3-21g pop=full geom=connectivity
 -------------------------------------
 1/38=1,57=2,172=1/1;
 2/12=2,17=6,18=5,40=1/2;
 3/5=5,11=9,25=1,30=1/1,2,3;
 4//1;
 5/5=2,38=5/2;
 6/7=3,28=1/1;
 99/5=1,9=1/99;
 ----------------
 BCl3 pyramid opt
 ----------------
 Symbolic Z-matrix:
 Charge = -1 Multiplicity = 2
 B                     0.        0.        0.5801 
 Cl                    0.        1.80161  -0.05687 
 Cl                    1.56024  -0.90081  -0.05687 
 Cl                   -1.56024  -0.90081  -0.05687 
 
                          Input orientation:                          
 ---------------------------------------------------------------------
 Center     Atomic      Atomic             Coordinates (Angstroms)
 Number     Number       Type             X           Y           Z
 ---------------------------------------------------------------------
      1          5           0        0.000000    0.000000    0.580095
      2         17           0        0.000000    1.801614   -0.056872
      3         17           0        1.560244   -0.900807   -0.056872
      4         17           0       -1.560244   -0.900807   -0.056872
 ---------------------------------------------------------------------
                    Distance matrix (angstroms):
                    1          2          3          4
     1  B    0.000000
     2  Cl   1.910900   0.000000
     3  Cl   1.910901   3.120487   0.000000
     4  Cl   1.910901   3.120487   3.120488   0.000000
 Stoichiometry    BCl3(1-,2)
 Framework group  C3V[C3(B),3SGV(Cl)]
 Deg. of freedom     2
 Full point group                 C3V     NOp   6
 Largest Abelian subgroup         CS      NOp   2
 Largest concise Abelian subgroup CS      NOp   2
                         Standard orientation:                         
 ---------------------------------------------------------------------
 Center     Atomic      Atomic             Coordinates (Angstroms)
 Number     Number       Type             X           Y           Z
 ---------------------------------------------------------------------
      1          5           0        0.000000    0.000000    0.580095
      2         17           0       -0.000000    1.801614   -0.056872
      3         17           0        1.560243   -0.900807   -0.056872
      4         17           0       -1.560243   -0.900807   -0.056872
 ---------------------------------------------------------------------
 Rotational constants (GHZ):           2.8995434           2.8995434           1.4841953
 Standard basis: 3-21G (6D, 7F)
 There are    30 symmetry adapted cartesian basis functions of A'  symmetry.
 There are    18 symmetry adapted cartesian basis functions of A"  symmetry.
 There are    30 symmetry adapted basis functions of A'  symmetry.
 There are    18 symmetry adapted basis functions of A"  symmetry.
    48 basis functions,    96 primitive gaussians,    48 cartesian basis functions
    29 alpha electrons       28 beta electrons
       nuclear repulsion energy       217.6432848187 Hartrees.
 NAtoms=    4 NActive=    4 NUniq=    2 SFac= 4.00D+00 NAtFMM=   60 NAOKFM=F Big=F
 Integral buffers will be    131072 words long.
 Raffenetti 2 integral format.
 Two-electron integral symmetry is turned on.
 One-electron integrals computed using PRISM.
 NBasis=    48 RedAO= T EigKep=  1.47D-02  NBF=    30    18
 NBsUse=    48 1.00D-06 EigRej= -1.00D+00 NBFU=    30    18
 ExpMin= 1.24D-01 ExpMax= 1.38D+03 ExpMxC= 1.38D+03 IAcc=3 IRadAn=         5 AccDes= 0.00D+00
 Harris functional with IExCor=  205 and IRadAn=       5 diagonalized for initial guess.
 HarFok:  IExCor=  205 AccDes= 0.00D+00 IRadAn=         5 IDoV= 1 UseB2=F ITyADJ=14
 ICtDFT=  3500011 ScaDFX=  1.000000  1.000000  1.000000  1.000000
 FoFCou: FMM=F IPFlag=           0 FMFlag=      100000 FMFlg1=           0
         NFxFlg=           0 DoJE=T BraDBF=F KetDBF=T FulRan=T
         wScrn=  0.000000 ICntrl=       500 IOpCl=  0 I1Cent=   200000004 NGrid=           0
         NMat0=    1 NMatS0=      1 NMatT0=    0 NMatD0=    1 NMtDS0=    0 NMtDT0=    0
 Petite list used in FoFCou.
 Initial guess orbital symmetries:
 Alpha Orbitals:
       Occupied  (E) (E) (A1) (E) (E) (A1) (E) (E) (A1) (A2) (E)
                 (E) (A1) (E) (E) (A1) (A1) (E) (E) (A1) (E) (E)
                 (A1) (E) (E) (E) (E) (A2) (A1)
       Virtual   (A1) (E) (E) (E) (E) (A1) (A1) (E) (E) (E) (E)
                 (A1) (A1) (E) (E) (A2) (E) (E) (A1)
 Beta  Orbitals:
       Occupied  (E) (E) (A1) (E) (E) (A1) (E) (E) (A1) (A2) (E)
                 (E) (A1) (E) (E) (A1) (A1) (E) (E) (A1) (E) (E)
                 (A1) (E) (E) (E) (E) (A2)
       Virtual   (A1) (A1) (E) (E) (E) (E) (A1) (A1) (E) (E) (E)
                 (E) (A1) (A1) (E) (E) (A2) (E) (E) (A1)
 The electronic state of the initial guess is 2-A1.
 Initial guess <Sx>= 0.0000 <Sy>= 0.0000 <Sz>= 0.5000 <S**2>= 0.7500 S= 0.5000
 Keep R1 and R2 ints in memory in symmetry-blocked form, NReq=1509541.
 Requested convergence on RMS density matrix=1.00D-08 within 128 cycles.
 Requested convergence on MAX density matrix=1.00D-06.
 Requested convergence on             energy=1.00D-06.
 No special actions if energy rises.
 SCF Done:  E(UHF) =  -1396.56984900     A.U. after   13 cycles
            NFock= 13  Conv=0.32D-08     -V/T= 2.0007
 <Sx>= 0.0000 <Sy>= 0.0000 <Sz>= 0.5000 <S**2>= 0.7536 S= 0.5018
 <L.S>= 0.000000000000E+00
 Annihilation of the first spin contaminant:
 S**2 before annihilation     0.7536,   after     0.7500

 **********************************************************************

            Population analysis using the SCF Density.

 **********************************************************************

 Orbital symmetries:
 Alpha Orbitals:
       Occupied  (E) (E) (A1) (E) (E) (A1) (E) (E) (A1) (E) (E)
                 (A1) (A2) (E) (E) (A1) (A1) (E) (E) (A1) (E) (E)
                 (A1) (E) (E) (E) (E) (A2) (A1)
       Virtual   (A1) (E) (E) (A1) (E) (E) (A1) (E) (E) (A1) (E)
                 (E) (A1) (E) (E) (A2) (E) (E) (A1)
 Beta  Orbitals:
       Occupied  (E) (E) (A1) (E) (E) (A1) (E) (E) (A1) (A2) (E)
                 (E) (E) (E) (A1) (A1) (A1) (E) (E) (A1) (E) (E)
                 (A1) (E) (E) (E) (E) (A2)
       Virtual   (A1) (A1) (E) (E) (E) (E) (A1) (A1) (E) (E) (A1)
                 (E) (E) (A1) (E) (E) (A2) (E) (E) (A1)
 The electronic state is 2-A1.
 Alpha  occ. eigenvalues -- -103.90660-103.90660-103.90631 -10.30112 -10.30112
 Alpha  occ. eigenvalues --  -10.30021  -7.76457  -7.76457  -7.76439  -7.76141
 Alpha  occ. eigenvalues --   -7.76141  -7.76124  -7.76098  -7.76072  -7.76072
 Alpha  occ. eigenvalues --   -7.51594  -0.94359  -0.88977  -0.88977  -0.49517
 Alpha  occ. eigenvalues --   -0.36148  -0.36148  -0.35163  -0.28932  -0.28932
 Alpha  occ. eigenvalues --   -0.25894  -0.25894  -0.25016  -0.14274
 Alpha virt. eigenvalues --    0.38826   0.39650   0.39650   0.77966   0.81839
 Alpha virt. eigenvalues --    0.81839   0.85614   0.93046   0.93046   0.95739
 Alpha virt. eigenvalues --    0.95934   0.95934   1.01939   1.05150   1.05150
 Alpha virt. eigenvalues --    1.09600   1.24190   1.24190   1.43898
  Beta  occ. eigenvalues -- -103.90597-103.90597-103.90568 -10.30037 -10.30037
  Beta  occ. eigenvalues --  -10.29946  -7.76381  -7.76381  -7.76358  -7.76063
  Beta  occ. eigenvalues --   -7.76038  -7.76038  -7.75953  -7.75953  -7.75943
  Beta  occ. eigenvalues --   -7.49304  -0.93294  -0.88382  -0.88382  -0.45654
  Beta  occ. eigenvalues --   -0.35095  -0.35095  -0.30989  -0.27930  -0.27930
  Beta  occ. eigenvalues --   -0.25802  -0.25802  -0.24910
  Beta virt. eigenvalues --    0.29879   0.39902   0.44410   0.44410   0.83672
  Beta virt. eigenvalues --    0.83672   0.85750   0.89114   0.93500   0.93500
  Beta virt. eigenvalues --    0.95801   0.96055   0.96055   1.03276   1.05718
  Beta virt. eigenvalues --    1.05718   1.09673   1.24487   1.24487   1.45944
     Alpha Molecular Orbital Coefficients:
                           1         2         3         4         5
                        (E)--O    (E)--O    (A1)--O   (E)--O    (E)--O
     Eigenvalues --  -103.90660-103.90660-103.90631 -10.30112 -10.30112
   1 1   B  1S         -0.00000   0.00000   0.00017   0.00000   0.00000
   2        2S         -0.00000   0.00000   0.00166   0.00000   0.00000
   3        2PX         0.00000  -0.00001   0.00000   0.00000  -0.00009
   4        2PY        -0.00001   0.00000  -0.00000  -0.00009   0.00000
   5        2PZ         0.00000   0.00000  -0.00012  -0.00000   0.00000
   6        3S          0.00000   0.00000  -0.00867  -0.00000   0.00000
   7        3PX         0.00000  -0.00389   0.00000   0.00000   0.02259
   8        3PY        -0.00389   0.00000  -0.00000   0.02259   0.00000
   9        3PZ        -0.00000   0.00000   0.00249   0.00000   0.00000
  10 2   Cl 1S          0.80497   0.00000   0.56921  -0.24978   0.00000
  11        2S          0.04339   0.00000   0.03059   0.80247   0.00000
  12        2PX         0.00000  -0.00003   0.00000   0.00000   0.00012
  13        2PY        -0.00019   0.00000  -0.00006  -0.00508   0.00000
  14        2PZ         0.00006   0.00000   0.00003   0.00215   0.00000
  15        3S         -0.01594   0.00000  -0.01076   0.11816   0.00000
  16        3PX         0.00000   0.00016   0.00000   0.00000  -0.00082
  17        3PY         0.00083   0.00000   0.00018  -0.00566   0.00000
  18        3PZ        -0.00026   0.00000  -0.00010   0.00185   0.00000
  19        4S          0.01093   0.00000   0.00775  -0.06392   0.00000
  20        4PX         0.00000   0.00016   0.00000   0.00000  -0.00111
  21        4PY        -0.00281   0.00000  -0.00202   0.01627   0.00000
  22        4PZ         0.00109   0.00000   0.00046  -0.00637   0.00000
  23 3   Cl 1S         -0.40248   0.69712   0.56921   0.12489  -0.21631
  24        2S         -0.02169   0.03758   0.03059  -0.40124   0.69496
  25        2PX         0.00007  -0.00015  -0.00005   0.00225  -0.00378
  26        2PY        -0.00007   0.00007   0.00003  -0.00118   0.00225
  27        2PZ        -0.00003   0.00005   0.00003  -0.00107   0.00186
  28        3S          0.00797  -0.01380  -0.01076  -0.05908   0.10233
  29        3PX        -0.00029   0.00067   0.00016   0.00210  -0.00445
  30        3PY         0.00033  -0.00029  -0.00009  -0.00203   0.00210
  31        3PZ         0.00013  -0.00022  -0.00010  -0.00092   0.00160
  32        4S         -0.00547   0.00947   0.00775   0.03196  -0.05536
  33        4PX         0.00129  -0.00207  -0.00175  -0.00753   0.01193
  34        4PY        -0.00058   0.00129   0.00101   0.00324  -0.00753
  35        4PZ        -0.00054   0.00094   0.00046   0.00319  -0.00552
  36 4   Cl 1S         -0.40248  -0.69712   0.56921   0.12489   0.21631
  37        2S         -0.02169  -0.03758   0.03059  -0.40124  -0.69496
  38        2PX        -0.00007  -0.00015   0.00005  -0.00225  -0.00378
  39        2PY        -0.00007  -0.00007   0.00003  -0.00118  -0.00225
  40        2PZ        -0.00003  -0.00005   0.00003  -0.00107  -0.00186
  41        3S          0.00797   0.01380  -0.01076  -0.05908  -0.10233
  42        3PX         0.00029   0.00067  -0.00016  -0.00210  -0.00445
  43        3PY         0.00033   0.00029  -0.00009  -0.00203  -0.00210
  44        3PZ         0.00013   0.00022  -0.00010  -0.00092  -0.00160
  45        4S         -0.00547  -0.00947   0.00775   0.03196   0.05536
  46        4PX        -0.00129  -0.00207   0.00175   0.00753   0.01193
  47        4PY        -0.00058  -0.00129   0.00101   0.00324   0.00753
  48        4PZ        -0.00054  -0.00094   0.00046   0.00319   0.00552
                           6         7         8         9        10
                        (A1)--O   (E)--O    (E)--O    (A1)--O   (E)--O
     Eigenvalues --   -10.30021  -7.76457  -7.76457  -7.76439  -7.76141
   1 1   B  1S         -0.00135   0.00000   0.00000   0.00105   0.00000
   2        2S         -0.00982   0.00000  -0.00000  -0.00042   0.00000
   3        2PX         0.00000   0.00103   0.00000   0.00000   0.00000
   4        2PY        -0.00000   0.00000   0.00103   0.00000  -0.00073
   5        2PZ         0.00073   0.00000   0.00000  -0.00018  -0.00000
   6        3S          0.05148   0.00000  -0.00000  -0.01328  -0.00000
   7        3PX         0.00000  -0.01099   0.00000   0.00000   0.00000
   8        3PY         0.00000   0.00000  -0.01099   0.00000   0.00390
   9        3PZ        -0.01494   0.00000  -0.00000  -0.00009   0.00000
  10 2   Cl 1S         -0.17669   0.00000  -0.00218  -0.00145  -0.00039
  11        2S          0.56794   0.00000   0.00763   0.00496   0.00144
  12        2PX         0.00000   0.00752   0.00000   0.00000   0.00000
  13        2PY        -0.00390   0.00000   0.67455   0.47050   0.41555
  14        2PZ         0.00158   0.00000  -0.42009  -0.30760   0.66998
  15        3S          0.08109   0.00000  -0.00652  -0.00138  -0.00162
  16        3PX         0.00000   0.00099   0.00000   0.00000   0.00000
  17        3PY        -0.00186   0.00000   0.05809   0.03930   0.03494
  18        3PZ         0.00082   0.00000  -0.03509  -0.02554   0.05450
  19        4S         -0.04614   0.00000   0.01369   0.00356   0.00072
  20        4PX         0.00000  -0.00017   0.00000   0.00000   0.00000
  21        4PY         0.01226   0.00000  -0.02491  -0.01354  -0.01161
  22        4PZ        -0.00272   0.00000   0.01323   0.00903  -0.01728
  23 3   Cl 1S         -0.17669  -0.00189   0.00109  -0.00145   0.00020
  24        2S          0.56794   0.00661  -0.00381   0.00496  -0.00072
  25        2PX        -0.00338   0.50779  -0.28883   0.40746  -0.13446
  26        2PY         0.00195  -0.28883   0.17428  -0.23525   0.18265
  27        2PZ         0.00158  -0.36381   0.21004  -0.30760  -0.33499
  28        3S          0.08109  -0.00565   0.00326  -0.00138   0.00081
  29        3PX        -0.00161   0.04381  -0.02472   0.03403  -0.01114
  30        3PY         0.00093  -0.02472   0.01526  -0.01965   0.01565
  31        3PZ         0.00082  -0.03039   0.01755  -0.02554  -0.02725
  32        4S         -0.04614   0.01185  -0.00684   0.00356  -0.00036
  33        4PX         0.01062  -0.01872   0.01071  -0.01173   0.00291
  34        4PY        -0.00613   0.01071  -0.00635   0.00677  -0.00656
  35        4PZ        -0.00272   0.01146  -0.00662   0.00903   0.00864
  36 4   Cl 1S         -0.17669   0.00189   0.00109  -0.00145   0.00020
  37        2S          0.56794  -0.00661  -0.00381   0.00496  -0.00072
  38        2PX         0.00338   0.50779   0.28883  -0.40746   0.13446
  39        2PY         0.00195   0.28883   0.17428  -0.23525   0.18265
  40        2PZ         0.00158   0.36381   0.21004  -0.30760  -0.33499
  41        3S          0.08109   0.00565   0.00326  -0.00138   0.00081
  42        3PX         0.00161   0.04381   0.02472  -0.03403   0.01114
  43        3PY         0.00093   0.02472   0.01526  -0.01965   0.01565
  44        3PZ         0.00082   0.03039   0.01755  -0.02554  -0.02725
  45        4S         -0.04614  -0.01185  -0.00684   0.00356  -0.00036
  46        4PX        -0.01062  -0.01872  -0.01071   0.01173  -0.00291
  47        4PY        -0.00613  -0.01071  -0.00635   0.00677  -0.00656
  48        4PZ        -0.00272  -0.01146  -0.00662   0.00903   0.00864
                          11        12        13        14        15
                        (E)--O    (A1)--O   (A2)--O   (E)--O    (E)--O
     Eigenvalues --    -7.76141  -7.76124  -7.76098  -7.76072  -7.76072
   1 1   B  1S          0.00000   0.00084   0.00000   0.00000   0.00000
   2        2S          0.00000   0.00165   0.00000   0.00000   0.00000
   3        2PX        -0.00073   0.00000  -0.00000   0.00000  -0.00100
   4        2PY         0.00000   0.00000   0.00000  -0.00100   0.00000
   5        2PZ         0.00000  -0.00113   0.00000  -0.00000   0.00000
   6        3S          0.00000  -0.00869   0.00000  -0.00000   0.00000
   7        3PX         0.00390   0.00000   0.00000   0.00000   0.00639
   8        3PY         0.00000  -0.00000   0.00000   0.00639   0.00000
   9        3PZ         0.00000   0.00852   0.00000   0.00000   0.00000
  10 2   Cl 1S          0.00000  -0.00028   0.00000   0.00003   0.00000
  11        2S          0.00000   0.00093   0.00000  -0.00005   0.00000
  12        2PX         0.10502   0.00000   0.56233   0.00000   0.78856
  13        2PY         0.00000   0.30769   0.00000  -0.06202   0.00000
  14        2PZ         0.00000   0.47094   0.00000  -0.08537   0.00000
  15        3S          0.00000  -0.00038   0.00000  -0.00083   0.00000
  16        3PX         0.00922   0.00000   0.04662   0.00000   0.06366
  17        3PY         0.00000   0.02501   0.00000  -0.00448   0.00000
  18        3PZ         0.00000   0.03794   0.00000  -0.00657   0.00000
  19        4S          0.00000   0.00296   0.00000  -0.00121   0.00000
  20        4PX        -0.00488   0.00000  -0.01599   0.00000  -0.01913
  21        4PY         0.00000  -0.00921   0.00000   0.00127   0.00000
  22        4PZ         0.00000  -0.01134   0.00000   0.00050   0.00000
  23 3   Cl 1S         -0.00034  -0.00028  -0.00000  -0.00002   0.00003
  24        2S          0.00124   0.00093   0.00000   0.00003  -0.00005
  25        2PX         0.33792   0.26647  -0.28116   0.36831   0.15063
  26        2PY        -0.13446  -0.15385  -0.48699   0.57591   0.36831
  27        2PZ         0.58022   0.47094   0.00000   0.04268  -0.07393
  28        3S         -0.00140  -0.00038  -0.00000   0.00042  -0.00072
  29        3PX         0.02851   0.02166  -0.02331   0.02950   0.01256
  30        3PY        -0.01114  -0.01251  -0.04038   0.04662   0.02950
  31        3PZ         0.04720   0.03794   0.00000   0.00328  -0.00569
  32        4S          0.00063   0.00296   0.00000   0.00060  -0.00105
  33        4PX        -0.00992  -0.00797   0.00799  -0.00883  -0.00383
  34        4PY         0.00291   0.00460   0.01385  -0.01403  -0.00883
  35        4PZ        -0.01496  -0.01134  -0.00000  -0.00025   0.00043
  36 4   Cl 1S          0.00034  -0.00028   0.00000  -0.00002  -0.00003
  37        2S         -0.00124   0.00093  -0.00000   0.00003   0.00005
  38        2PX         0.33792  -0.26647  -0.28116  -0.36831   0.15063
  39        2PY         0.13446  -0.15385   0.48699   0.57591  -0.36831
  40        2PZ        -0.58022   0.47094  -0.00000   0.04268   0.07393
  41        3S          0.00140  -0.00038   0.00000   0.00042   0.00072
  42        3PX         0.02851  -0.02166  -0.02331  -0.02950   0.01256
  43        3PY         0.01114  -0.01251   0.04038   0.04662  -0.02950
  44        3PZ        -0.04720   0.03794  -0.00000   0.00328   0.00569
  45        4S         -0.00063   0.00296  -0.00000   0.00060   0.00105
  46        4PX        -0.00992   0.00797   0.00799   0.00883  -0.00383
  47        4PY        -0.00291   0.00460  -0.01385  -0.01403   0.00883
  48        4PZ         0.01496  -0.01134   0.00000  -0.00025  -0.00043
                          16        17        18        19        20
                        (A1)--O   (A1)--O   (E)--O    (E)--O    (A1)--O
     Eigenvalues --    -7.51594  -0.94359  -0.88977  -0.88977  -0.49517
   1 1   B  1S          0.98928  -0.08426   0.00000  -0.00000  -0.16976
   2        2S          0.09541   0.10206   0.00000  -0.00000   0.19666
   3        2PX         0.00000   0.00000   0.09234   0.00000   0.00000
   4        2PY         0.00000  -0.00000   0.00000   0.09234   0.00000
   5        2PZ        -0.00370  -0.03730   0.00000  -0.00000   0.02216
   6        3S         -0.07232   0.13886   0.00000   0.00000   0.56768
   7        3PX         0.00000   0.00000  -0.01445   0.00000   0.00000
   8        3PY         0.00000  -0.00000   0.00000  -0.01445   0.00000
   9        3PZ         0.01849  -0.02303   0.00000  -0.00000  -0.02890
  10 2   Cl 1S         -0.00012   0.04215   0.00000   0.06481  -0.01834
  11        2S          0.00054  -0.24715   0.00000  -0.38126   0.11060
  12        2PX         0.00000   0.00000  -0.00509   0.00000   0.00000
  13        2PY        -0.00139   0.02563   0.00000   0.01870   0.10126
  14        2PZ         0.00017  -0.00727   0.00000  -0.00917  -0.03587
  15        3S         -0.00511   0.31514   0.00000   0.46810  -0.11616
  16        3PX         0.00000   0.00000   0.01095   0.00000   0.00000
  17        3PY         0.00055  -0.05356   0.00000  -0.03774  -0.21517
  18        3PZ         0.00046   0.01482   0.00000   0.01931   0.07505
  19        4S          0.02084   0.23255   0.00000   0.44413  -0.26901
  20        4PX         0.00000   0.00000   0.00534   0.00000   0.00000
  21        4PY        -0.01047  -0.01005   0.00000  -0.03800  -0.08713
  22        4PZ        -0.00021   0.00713   0.00000   0.01519   0.03990
  23 3   Cl 1S         -0.00012   0.04215   0.05612  -0.03240  -0.01834
  24        2S          0.00054  -0.24715  -0.33018   0.19063   0.11060
  25        2PX        -0.00120   0.02220   0.01275  -0.01030   0.08769
  26        2PY         0.00069  -0.01282  -0.01030   0.00085  -0.05063
  27        2PZ         0.00017  -0.00727  -0.00794   0.00459  -0.03587
  28        3S         -0.00511   0.31514   0.40539  -0.23405  -0.11616
  29        3PX         0.00047  -0.04638  -0.02557   0.02108  -0.18635
  30        3PY        -0.00027   0.02678   0.02108  -0.00122   0.10759
  31        3PZ         0.00046   0.01482   0.01673  -0.00966   0.07505
  32        4S          0.02084   0.23255   0.38463  -0.22206  -0.26901
  33        4PX        -0.00906  -0.00870  -0.02717   0.01877  -0.07546
  34        4PY         0.00523   0.00502   0.01877  -0.00550   0.04356
  35        4PZ        -0.00021   0.00713   0.01315  -0.00759   0.03990
  36 4   Cl 1S         -0.00012   0.04215  -0.05612  -0.03240  -0.01834
  37        2S          0.00054  -0.24715   0.33018   0.19063   0.11060
  38        2PX         0.00120  -0.02220   0.01275   0.01030  -0.08769
  39        2PY         0.00069  -0.01282   0.01030   0.00085  -0.05063
  40        2PZ         0.00017  -0.00727   0.00794   0.00459  -0.03587
  41        3S         -0.00511   0.31514  -0.40539  -0.23405  -0.11616
  42        3PX        -0.00047   0.04638  -0.02557  -0.02108   0.18635
  43        3PY        -0.00027   0.02678  -0.02108  -0.00122   0.10759
  44        3PZ         0.00046   0.01482  -0.01673  -0.00966   0.07505
  45        4S          0.02084   0.23255  -0.38463  -0.22206  -0.26901
  46        4PX         0.00906   0.00870  -0.02717  -0.01877   0.07546
  47        4PY         0.00523   0.00502  -0.01877  -0.00550   0.04356
  48        4PZ        -0.00021   0.00713  -0.01315  -0.00759   0.03990
                          21        22        23        24        25
                        (E)--O    (E)--O    (A1)--O   (E)--O    (E)--O
     Eigenvalues --    -0.36148  -0.36148  -0.35163  -0.28932  -0.28932
   1 1   B  1S          0.00000   0.00000  -0.02799   0.00000   0.00000
   2        2S          0.00000   0.00000   0.05884  -0.00000   0.00000
   3        2PX         0.00000   0.23783   0.00000   0.00000   0.06556
   4        2PY        -0.23783   0.00000  -0.00000   0.06556   0.00000
   5        2PZ        -0.00000   0.00000   0.23815  -0.00000   0.00000
   6        3S         -0.00000   0.00000   0.08340   0.00000   0.00000
   7        3PX         0.00000   0.12658   0.00000   0.00000   0.00048
   8        3PY        -0.12658   0.00000  -0.00000   0.00048   0.00000
   9        3PZ         0.00000   0.00000   0.21869  -0.00000   0.00000
  10 2   Cl 1S          0.01067   0.00000   0.00153  -0.00096   0.00000
  11        2S         -0.06466   0.00000  -0.00942   0.00579   0.00000
  12        2PX         0.00000  -0.11494   0.00000   0.00000   0.13587
  13        2PY        -0.14732   0.00000  -0.06681   0.01265   0.00000
  14        2PZ         0.07602   0.00000  -0.11546  -0.17894   0.00000
  15        3S          0.07743   0.00000   0.00389  -0.00850   0.00000
  16        3PX         0.00000   0.24787   0.00000   0.00000  -0.29110
  17        3PY         0.31333   0.00000   0.14455  -0.02675   0.00000
  18        3PZ        -0.16397   0.00000   0.24863   0.38540   0.00000
  19        4S          0.13894   0.00000   0.04580  -0.00238   0.00000
  20        4PX         0.00000   0.19106   0.00000   0.00000  -0.26942
  21        4PY         0.23792   0.00000   0.09562  -0.02561   0.00000
  22        4PZ        -0.11627   0.00000   0.19535   0.34727   0.00000
  23 3   Cl 1S         -0.00533  -0.00924   0.00153   0.00048  -0.00083
  24        2S          0.03233   0.05600  -0.00942  -0.00289   0.00501
  25        2PX         0.11356   0.08176  -0.05786   0.05335   0.04346
  26        2PY         0.04937  -0.11356   0.03340   0.10506   0.05335
  27        2PZ        -0.03801  -0.06584  -0.11546   0.08947  -0.15497
  28        3S         -0.03871  -0.06705   0.00389   0.00425  -0.00736
  29        3PX        -0.24301  -0.17303   0.12519  -0.11447  -0.09284
  30        3PY        -0.10757   0.24301  -0.07228  -0.22501  -0.11447
  31        3PZ         0.08199   0.14201   0.24863  -0.19270   0.33377
  32        4S         -0.06947  -0.12033   0.04580   0.00119  -0.00206
  33        4PX        -0.18576  -0.13068   0.08281  -0.10557  -0.08656
  34        4PY        -0.08381   0.18576  -0.04781  -0.20847  -0.10557
  35        4PZ         0.05813   0.10069   0.19535  -0.17363   0.30074
  36 4   Cl 1S         -0.00533   0.00924   0.00153   0.00048   0.00083
  37        2S          0.03233  -0.05600  -0.00942  -0.00289  -0.00501
  38        2PX        -0.11356   0.08176   0.05786  -0.05335   0.04346
  39        2PY         0.04937   0.11356   0.03340   0.10506  -0.05335
  40        2PZ        -0.03801   0.06584  -0.11546   0.08947   0.15497
  41        3S         -0.03871   0.06705   0.00389   0.00425   0.00736
  42        3PX         0.24301  -0.17303  -0.12519   0.11447  -0.09284
  43        3PY        -0.10757  -0.24301  -0.07228  -0.22501   0.11447
  44        3PZ         0.08199  -0.14201   0.24863  -0.19270  -0.33377
  45        4S         -0.06947   0.12033   0.04580   0.00119   0.00206
  46        4PX         0.18576  -0.13068  -0.08281   0.10557  -0.08656
  47        4PY        -0.08381  -0.18576  -0.04781  -0.20847   0.10557
  48        4PZ         0.05813  -0.10069   0.19535  -0.17363  -0.30074
                          26        27        28        29        30
                        (E)--O    (E)--O    (A2)--O   (A1)--O   (A1)--V
     Eigenvalues --    -0.25894  -0.25894  -0.25016  -0.14274   0.38826
   1 1   B  1S          0.00000   0.00000   0.00000  -0.09270  -0.19619
   2        2S          0.00000   0.00000   0.00000   0.11070   0.11995
   3        2PX         0.00000  -0.09291  -0.00000   0.00000   0.00000
   4        2PY        -0.09291   0.00000   0.00000  -0.00000  -0.00000
   5        2PZ        -0.00000   0.00000   0.00000   0.40241  -0.29993
   6        3S         -0.00000   0.00000   0.00000   0.60101   2.11040
   7        3PX         0.00000   0.03648  -0.00000   0.00000   0.00000
   8        3PY         0.03648   0.00000   0.00000  -0.00000  -0.00000
   9        3PZ         0.00000   0.00000   0.00000   0.40008  -1.02782
  10 2   Cl 1S         -0.00012   0.00000   0.00000  -0.00353  -0.01549
  11        2S          0.00082   0.00000   0.00000   0.02176   0.09889
  12        2PX         0.00000  -0.13037  -0.16684   0.00000   0.00000
  13        2PY        -0.15570   0.00000   0.00000  -0.03803  -0.08901
  14        2PZ        -0.11246   0.00000   0.00000   0.10659  -0.00023
  15        3S          0.00619   0.00000   0.00000  -0.03016  -0.05943
  16        3PX         0.00000   0.28141   0.36166   0.00000   0.00000
  17        3PY         0.33398   0.00000   0.00000   0.08468   0.17133
  18        3PZ         0.24414   0.00000   0.00000  -0.23058   0.00312
  19        4S         -0.03368   0.00000   0.00000  -0.06022  -0.70999
  20        4PX         0.00000   0.25414   0.32590   0.00000   0.00000
  21        4PY         0.32343   0.00000   0.00000   0.09178   0.75485
  22        4PZ         0.21304   0.00000   0.00000  -0.28313  -0.04490
  23 3   Cl 1S          0.00006  -0.00010  -0.00000  -0.00353  -0.01549
  24        2S         -0.00041   0.00071   0.00000   0.02176   0.09889
  25        2PX         0.01097  -0.14937   0.08342  -0.03294  -0.07709
  26        2PY        -0.13670   0.01097   0.14449   0.01902   0.04451
  27        2PZ         0.05623  -0.09739  -0.00000   0.10659  -0.00023
  28        3S         -0.00310   0.00536  -0.00000  -0.03016  -0.05943
  29        3PX        -0.02276   0.32084  -0.18083   0.07333   0.14838
  30        3PY         0.29455  -0.02276  -0.31320  -0.04234  -0.08567
  31        3PZ        -0.12207   0.21143   0.00000  -0.23058   0.00312
  32        4S          0.01684  -0.02916  -0.00000  -0.06022  -0.70999
  33        4PX        -0.03001   0.30611  -0.16295   0.07948   0.65372
  34        4PY         0.27146  -0.03001  -0.28224  -0.04589  -0.37742
  35        4PZ        -0.10652   0.18449   0.00000  -0.28313  -0.04490
  36 4   Cl 1S          0.00006   0.00010   0.00000  -0.00353  -0.01549
  37        2S         -0.00041  -0.00071  -0.00000   0.02176   0.09889
  38        2PX        -0.01097  -0.14937   0.08342   0.03294   0.07709
  39        2PY        -0.13670  -0.01097  -0.14449   0.01902   0.04451
  40        2PZ         0.05623   0.09739   0.00000   0.10659  -0.00023
  41        3S         -0.00310  -0.00536   0.00000  -0.03016  -0.05943
  42        3PX         0.02276   0.32084  -0.18083  -0.07333  -0.14838
  43        3PY         0.29455   0.02276   0.31320  -0.04234  -0.08567
  44        3PZ        -0.12207  -0.21143  -0.00000  -0.23058   0.00312
  45        4S          0.01684   0.02916   0.00000  -0.06022  -0.70999
  46        4PX         0.03001   0.30611  -0.16295  -0.07948  -0.65372
  47        4PY         0.27146   0.03001   0.28224  -0.04589  -0.37742
  48        4PZ        -0.10652  -0.18449  -0.00000  -0.28313  -0.04490
                          31        32        33        34        35
                        (E)--V    (E)--V    (A1)--V   (E)--V    (E)--V
     Eigenvalues --     0.39650   0.39650   0.77966   0.81839   0.81839
   1 1   B  1S          0.00000  -0.00000   0.04050   0.00000   0.00000
   2        2S          0.00000   0.00000  -0.30596   0.00000   0.00000
   3        2PX         0.42734   0.00000   0.00000   0.00000  -1.09849
   4        2PY         0.00000   0.42734  -0.00000  -1.09849   0.00000
   5        2PZ         0.00000  -0.00000  -1.02175   0.00000   0.00000
   6        3S          0.00000   0.00000  -0.29591  -0.00000   0.00000
   7        3PX         1.62200   0.00000   0.00000   0.00000   1.61123
   8        3PY         0.00000   1.62200   0.00000   1.61123   0.00000
   9        3PZ         0.00000  -0.00000   1.35531  -0.00000   0.00000
  10 2   Cl 1S          0.00000  -0.01913  -0.00809  -0.00676   0.00000
  11        2S          0.00000   0.12185   0.04813   0.04402   0.00000
  12        2PX         0.04790   0.00000   0.00000   0.00000   0.05676
  13        2PY         0.00000  -0.07248  -0.00888   0.08456   0.00000
  14        2PZ         0.00000   0.05315   0.03388   0.01503   0.00000
  15        3S          0.00000  -0.09431  -0.24234  -0.13796   0.00000
  16        3PX        -0.09683   0.00000   0.00000   0.00000  -0.17206
  17        3PY         0.00000   0.13454   0.02902  -0.22695   0.00000
  18        3PZ         0.00000  -0.11120  -0.09554  -0.06329   0.00000
  19        4S          0.00000  -0.91317   0.47795  -0.51909   0.00000
  20        4PX        -0.34213   0.00000   0.00000   0.00000  -0.12840
  21        4PY         0.00000   0.73486  -0.22346   0.32950   0.00000
  22        4PZ         0.00000  -0.38114  -0.08989  -0.09586   0.00000
  23 3   Cl 1S         -0.01657   0.00957  -0.00809   0.00338  -0.00586
  24        2S          0.10553  -0.06093   0.04813  -0.02201   0.03812
  25        2PX        -0.04239   0.05212  -0.00769  -0.01204   0.07761
  26        2PY         0.05212   0.01780   0.00444   0.06371  -0.01204
  27        2PZ         0.04603  -0.02657   0.03388  -0.00751   0.01301
  28        3S         -0.08168   0.04716  -0.24234   0.06898  -0.11947
  29        3PX         0.07669  -0.10018   0.02513   0.02377  -0.21323
  30        3PY        -0.10018  -0.03899  -0.01451  -0.18578   0.02377
  31        3PZ        -0.09630   0.05560  -0.09554   0.03165  -0.05481
  32        4S         -0.79083   0.45658   0.47795   0.25955  -0.44955
  33        4PX         0.46561  -0.46635  -0.19352  -0.19828   0.21502
  34        4PY        -0.46635  -0.07288   0.11173  -0.01393  -0.19828
  35        4PZ        -0.33008   0.19057  -0.08989   0.04793  -0.08302
  36 4   Cl 1S          0.01657   0.00957  -0.00809   0.00338   0.00586
  37        2S         -0.10553  -0.06093   0.04813  -0.02201  -0.03812
  38        2PX        -0.04239  -0.05212   0.00769   0.01204   0.07761
  39        2PY        -0.05212   0.01780   0.00444   0.06371   0.01204
  40        2PZ        -0.04603  -0.02657   0.03388  -0.00751  -0.01301
  41        3S          0.08168   0.04716  -0.24234   0.06898   0.11947
  42        3PX         0.07669   0.10018  -0.02513  -0.02377  -0.21323
  43        3PY         0.10018  -0.03899  -0.01451  -0.18578  -0.02377
  44        3PZ         0.09630   0.05560  -0.09554   0.03165   0.05481
  45        4S          0.79083   0.45658   0.47795   0.25955   0.44955
  46        4PX         0.46561   0.46635   0.19352   0.19828   0.21502
  47        4PY         0.46635  -0.07288   0.11173  -0.01393   0.19828
  48        4PZ         0.33008   0.19057  -0.08989   0.04793   0.08302
                          36        37        38        39        40
                        (A1)--V   (E)--V    (E)--V    (A1)--V   (E)--V
     Eigenvalues --     0.85614   0.93046   0.93046   0.95739   0.95934
   1 1   B  1S          0.06530   0.00000   0.00000  -0.00142   0.00000
   2        2S         -0.49159   0.00000  -0.00000  -0.08177   0.00000
   3        2PX         0.00000   0.21460   0.00000   0.00000   0.00000
   4        2PY         0.00000   0.00000   0.21460   0.00000   0.03659
   5        2PZ         0.27401   0.00000   0.00000   0.06868  -0.00000
   6        3S         -0.32708   0.00000   0.00000   1.19545  -0.00000
   7        3PX         0.00000  -0.93452   0.00000   0.00000   0.00000
   8        3PY         0.00000   0.00000  -0.93452  -0.00000  -0.42380
   9        3PZ         0.06056   0.00000  -0.00000  -0.63581   0.00000
  10 2   Cl 1S         -0.03379   0.00000  -0.04089  -0.00405   0.00753
  11        2S          0.20548   0.00000   0.24786   0.02726  -0.04721
  12        2PX         0.00000   0.06955   0.00000   0.00000   0.00000
  13        2PY         0.01724   0.00000   0.13860   0.19035  -0.13516
  14        2PZ        -0.07276   0.00000  -0.10828   0.07937  -0.07261
  15        3S         -0.95241   0.00000  -1.15529  -0.02547   0.16422
  16        3PX         0.00000  -0.25546   0.00000   0.00000   0.00000
  17        3PY        -0.02701   0.00000  -0.48395  -0.66528   0.46758
  18        3PZ         0.23535   0.00000   0.36736  -0.27627   0.24828
  19        4S          1.01187   0.00000   1.51730  -0.31056   0.03899
  20        4PX         0.00000   0.41440   0.00000   0.00000   0.00000
  21        4PY        -0.15317   0.00000   0.25097   0.89227  -0.54520
  22        4PZ        -0.14544   0.00000  -0.19465   0.24939  -0.16282
  23 3   Cl 1S         -0.03379  -0.03541   0.02044  -0.00405  -0.00376
  24        2S          0.20548   0.21465  -0.12393   0.02726   0.02361
  25        2PX         0.01493   0.12134  -0.02990   0.16485   0.16460
  26        2PY        -0.00862  -0.02990   0.08681  -0.09518   0.14993
  27        2PZ        -0.07276  -0.09377   0.05414   0.07937   0.03631
  28        3S         -0.95241  -1.00051   0.57764  -0.02547  -0.08211
  29        3PX        -0.02339  -0.42683   0.09894  -0.57615  -0.56889
  30        3PY         0.01350   0.09894  -0.31258   0.33264  -0.51777
  31        3PZ         0.23535   0.31814  -0.18368  -0.27627  -0.12414
  32        4S          1.01187   1.31402  -0.75865  -0.31056  -0.01949
  33        4PX        -0.13265   0.29183   0.07077   0.77273   0.59466
  34        4PY         0.07658   0.07077   0.37354  -0.44614   0.48479
  35        4PZ        -0.14544  -0.16857   0.09733   0.24939   0.08141
  36 4   Cl 1S         -0.03379   0.03541   0.02044  -0.00405  -0.00376
  37        2S          0.20548  -0.21465  -0.12393   0.02726   0.02361
  38        2PX        -0.01493   0.12134   0.02990  -0.16485  -0.16460
  39        2PY        -0.00862   0.02990   0.08681  -0.09518   0.14993
  40        2PZ        -0.07276   0.09377   0.05414   0.07937   0.03631
  41        3S         -0.95241   1.00051   0.57764  -0.02547  -0.08211
  42        3PX         0.02339  -0.42683  -0.09894   0.57615   0.56889
  43        3PY         0.01350  -0.09894  -0.31258   0.33264  -0.51777
  44        3PZ         0.23535  -0.31814  -0.18368  -0.27627  -0.12414
  45        4S          1.01187  -1.31402  -0.75865  -0.31056  -0.01949
  46        4PX         0.13265   0.29183  -0.07077  -0.77273  -0.59466
  47        4PY         0.07658  -0.07077   0.37354  -0.44614   0.48479
  48        4PZ        -0.14544   0.16857   0.09733   0.24939   0.08141
                          41        42        43        44        45
                        (E)--V    (A1)--V   (E)--V    (E)--V    (A2)--V
     Eigenvalues --     0.95934   1.01939   1.05150   1.05150   1.09600
   1 1   B  1S          0.00000  -0.01184  -0.00000   0.00000   0.00000
   2        2S          0.00000  -0.07887   0.00000   0.00000   0.00000
   3        2PX        -0.03659   0.00000   0.00000  -0.21745  -0.00000
   4        2PY         0.00000  -0.00000  -0.21745   0.00000   0.00000
   5        2PZ         0.00000  -0.21777  -0.00000   0.00000   0.00000
   6        3S          0.00000   1.46157   0.00000   0.00000   0.00000
   7        3PX         0.42380   0.00000   0.00000   1.16204   0.00000
   8        3PY         0.00000  -0.00000   1.16204   0.00000   0.00000
   9        3PZ         0.00000   0.18479   0.00000   0.00000   0.00000
  10 2   Cl 1S          0.00000   0.01240   0.00893   0.00000   0.00000
  11        2S          0.00000  -0.07332  -0.05174   0.00000   0.00000
  12        2PX        -0.24497   0.00000   0.00000  -0.10279   0.20364
  13        2PY         0.00000   0.08235  -0.03878   0.00000   0.00000
  14        2PZ         0.00000  -0.16852  -0.25452   0.00000   0.00000
  15        3S          0.00000   0.45551   0.34954   0.00000   0.00000
  16        3PX         0.84622   0.00000   0.00000   0.38099  -0.73825
  17        3PY         0.00000  -0.30775   0.14102   0.00000   0.00000
  18        3PZ         0.00000   0.60724   0.91291   0.00000   0.00000
  19        4S          0.00000  -0.74208  -0.87924   0.00000   0.00000
  20        4PX        -0.82812   0.00000   0.00000  -0.59137   0.81968
  21        4PY         0.00000   0.56034   0.12938   0.00000   0.00000
  22        4PZ         0.00000  -0.75251  -1.12524   0.00000   0.00000
  23 3   Cl 1S         -0.00652   0.01240  -0.00447   0.00774   0.00000
  24        2S          0.04089  -0.07332   0.02587  -0.04481  -0.00000
  25        2PX         0.04013   0.07131  -0.02772  -0.05478  -0.10182
  26        2PY        -0.16460  -0.04117  -0.08679  -0.02772  -0.17635
  27        2PZ         0.06288  -0.16852   0.12726  -0.22042  -0.00000
  28        3S         -0.14222   0.45551  -0.17477   0.30271   0.00000
  29        3PX        -0.13913  -0.26652   0.10391   0.20101   0.36913
  30        3PY         0.56889   0.15387   0.32099   0.10391   0.63935
  31        3PZ        -0.21501   0.60724  -0.45646   0.79061   0.00000
  32        4S         -0.03376  -0.74208   0.43962  -0.76144  -0.00000
  33        4PX         0.20187   0.48527  -0.31210  -0.05081  -0.40984
  34        4PY        -0.59466  -0.28017  -0.41119  -0.31210  -0.70986
  35        4PZ         0.14101  -0.75251   0.56262  -0.97449  -0.00000
  36 4   Cl 1S          0.00652   0.01240  -0.00447  -0.00774  -0.00000
  37        2S         -0.04089  -0.07332   0.02587   0.04481   0.00000
  38        2PX         0.04013  -0.07131   0.02772  -0.05478  -0.10182
  39        2PY         0.16460  -0.04117  -0.08679   0.02772   0.17635
  40        2PZ        -0.06288  -0.16852   0.12726   0.22042   0.00000
  41        3S          0.14222   0.45551  -0.17477  -0.30271  -0.00000
  42        3PX        -0.13913   0.26652  -0.10391   0.20101   0.36913
  43        3PY        -0.56889   0.15387   0.32099  -0.10391  -0.63935
  44        3PZ         0.21501   0.60724  -0.45646  -0.79061  -0.00000
  45        4S          0.03376  -0.74208   0.43962   0.76144   0.00000
  46        4PX         0.20187  -0.48527   0.31210  -0.05081  -0.40984
  47        4PY         0.59466  -0.28017  -0.41119   0.31210   0.70986
  48        4PZ        -0.14101  -0.75251   0.56262   0.97449   0.00000
                          46        47        48
                        (E)--V    (E)--V    (A1)--V
     Eigenvalues --     1.24190   1.24190   1.43898
   1 1   B  1S          0.00000  -0.00000  -0.09580
   2        2S          0.00000  -0.00000  -2.08924
   3        2PX        -0.20391   0.00000   0.00000
   4        2PY         0.00000  -0.20391   0.00000
   5        2PZ         0.00000   0.00000   0.23891
   6        3S          0.00000   0.00000   5.04055
   7        3PX        -0.83410   0.00000   0.00000
   8        3PY         0.00000  -0.83410   0.00000
   9        3PZ         0.00000  -0.00000  -1.66709
  10 2   Cl 1S          0.00000  -0.03846   0.01321
  11        2S          0.00000   0.23189  -0.07100
  12        2PX        -0.07116   0.00000   0.00000
  13        2PY         0.00000  -0.20871  -0.01152
  14        2PZ         0.00000   0.03477   0.02240
  15        3S          0.00000  -1.34293   0.72274
  16        3PX         0.26270   0.00000   0.00000
  17        3PY         0.00000   0.81751   0.02570
  18        3PZ         0.00000  -0.14412  -0.09847
  19        4S          0.00000   1.90496  -2.03301
  20        4PX        -0.22024   0.00000   0.00000
  21        4PY         0.00000  -1.38366   0.98627
  22        4PZ         0.00000   0.34577   0.03137
  23 3   Cl 1S         -0.03330   0.01923   0.01321
  24        2S          0.20082  -0.11594  -0.07100
  25        2PX        -0.17432   0.05956  -0.00998
  26        2PY         0.05956  -0.10555   0.00576
  27        2PZ         0.03011  -0.01739   0.02240
  28        3S         -1.16302   0.67147   0.72274
  29        3PX         0.67881  -0.24024   0.02225
  30        3PY        -0.24024   0.40141  -0.01285
  31        3PZ        -0.12481   0.07206  -0.09847
  32        4S          1.64975  -0.95248  -2.03301
  33        4PX        -1.09281   0.50378   0.85413
  34        4PY         0.50378  -0.51110  -0.49313
  35        4PZ         0.29945  -0.17289   0.03137
  36 4   Cl 1S          0.03330   0.01923   0.01321
  37        2S         -0.20082  -0.11594  -0.07100
  38        2PX        -0.17432  -0.05956   0.00998
  39        2PY        -0.05956  -0.10555   0.00576
  40        2PZ        -0.03011  -0.01739   0.02240
  41        3S          1.16302   0.67147   0.72274
  42        3PX         0.67881   0.24024  -0.02225
  43        3PY         0.24024   0.40141  -0.01285
  44        3PZ         0.12481   0.07206  -0.09847
  45        4S         -1.64975  -0.95248  -2.03301
  46        4PX        -1.09281  -0.50378  -0.85413
  47        4PY        -0.50378  -0.51110  -0.49313
  48        4PZ        -0.29945  -0.17289   0.03137
     Beta Molecular Orbital Coefficients:
                           1         2         3         4         5
                        (E)--O    (E)--O    (A1)--O   (E)--O    (E)--O
     Eigenvalues --  -103.90597-103.90597-103.90568 -10.30037 -10.30037
   1 1   B  1S         -0.00000   0.00000   0.00017   0.00000   0.00000
   2        2S         -0.00000   0.00000   0.00166   0.00000   0.00000
   3        2PX         0.00000  -0.00001   0.00000  -0.00008   0.00000
   4        2PY        -0.00001   0.00000  -0.00000   0.00000  -0.00008
   5        2PZ         0.00000   0.00000  -0.00013   0.00000  -0.00000
   6        3S          0.00000   0.00000  -0.00867   0.00000  -0.00000
   7        3PX         0.00000  -0.00389   0.00000   0.02260   0.00000
   8        3PY        -0.00389   0.00000  -0.00000   0.00000   0.02260
   9        3PZ        -0.00000   0.00000   0.00249   0.00000   0.00000
  10 2   Cl 1S          0.80497   0.00000   0.56921   0.00000  -0.24978
  11        2S          0.04339   0.00000   0.03058   0.00000   0.80249
  12        2PX         0.00000  -0.00003   0.00000   0.00012   0.00000
  13        2PY        -0.00019   0.00000  -0.00006   0.00000  -0.00503
  14        2PZ         0.00006   0.00000   0.00003   0.00000   0.00177
  15        3S         -0.01593   0.00000  -0.01076   0.00000   0.11814
  16        3PX         0.00000   0.00016   0.00000  -0.00082   0.00000
  17        3PY         0.00083   0.00000   0.00018   0.00000  -0.00567
  18        3PZ        -0.00026   0.00000  -0.00010   0.00000   0.00185
  19        4S          0.01093   0.00000   0.00775   0.00000  -0.06394
  20        4PX         0.00000   0.00016   0.00000  -0.00111   0.00000
  21        4PY        -0.00281   0.00000  -0.00202   0.00000   0.01627
  22        4PZ         0.00109   0.00000   0.00046   0.00000  -0.00637
  23 3   Cl 1S         -0.40248   0.69712   0.56921  -0.21631   0.12489
  24        2S         -0.02169   0.03757   0.03058   0.69497  -0.40124
  25        2PX         0.00007  -0.00015  -0.00005  -0.00374   0.00223
  26        2PY        -0.00007   0.00007   0.00003   0.00223  -0.00117
  27        2PZ        -0.00003   0.00005   0.00003   0.00153  -0.00089
  28        3S          0.00797  -0.01380  -0.01076   0.10231  -0.05907
  29        3PX        -0.00029   0.00067   0.00016  -0.00446   0.00210
  30        3PY         0.00033  -0.00029  -0.00009   0.00210  -0.00203
  31        3PZ         0.00013  -0.00022  -0.00010   0.00160  -0.00092
  32        4S         -0.00547   0.00947   0.00775  -0.05537   0.03197
  33        4PX         0.00129  -0.00207  -0.00175   0.01193  -0.00753
  34        4PY        -0.00058   0.00129   0.00101  -0.00753   0.00323
  35        4PZ        -0.00054   0.00094   0.00046  -0.00551   0.00318
  36 4   Cl 1S         -0.40248  -0.69712   0.56921   0.21631   0.12489
  37        2S         -0.02169  -0.03757   0.03058  -0.69497  -0.40124
  38        2PX        -0.00007  -0.00015   0.00005  -0.00374  -0.00223
  39        2PY        -0.00007  -0.00007   0.00003  -0.00223  -0.00117
  40        2PZ        -0.00003  -0.00005   0.00003  -0.00153  -0.00089
  41        3S          0.00797   0.01380  -0.01076  -0.10231  -0.05907
  42        3PX         0.00029   0.00067  -0.00016  -0.00446  -0.00210
  43        3PY         0.00033   0.00029  -0.00009  -0.00210  -0.00203
  44        3PZ         0.00013   0.00022  -0.00010  -0.00160  -0.00092
  45        4S         -0.00547  -0.00947   0.00775   0.05537   0.03197
  46        4PX        -0.00129  -0.00207   0.00175   0.01193   0.00753
  47        4PY        -0.00058  -0.00129   0.00101   0.00753   0.00323
  48        4PZ        -0.00054  -0.00094   0.00046   0.00551   0.00318
                           6         7         8         9        10
                        (A1)--O   (E)--O    (E)--O    (A1)--O   (A2)--O
     Eigenvalues --   -10.29946  -7.76381  -7.76381  -7.76358  -7.76063
   1 1   B  1S         -0.00137   0.00000  -0.00000   0.00117   0.00000
   2        2S         -0.00982   0.00000  -0.00000   0.00027   0.00000
   3        2PX         0.00000   0.00067   0.00000   0.00000   0.00000
   4        2PY        -0.00000   0.00000   0.00067   0.00000   0.00000
   5        2PZ         0.00079   0.00000   0.00000  -0.00069   0.00000
   6        3S          0.05159   0.00000   0.00000  -0.01572   0.00000
   7        3PX         0.00000  -0.00875   0.00000   0.00000  -0.00000
   8        3PY         0.00000   0.00000  -0.00875  -0.00000   0.00000
   9        3PZ        -0.01496   0.00000  -0.00000   0.00347   0.00000
  10 2   Cl 1S         -0.17669   0.00000  -0.00213  -0.00141   0.00000
  11        2S          0.56795   0.00000   0.00746   0.00482   0.00000
  12        2PX         0.00000   0.01624   0.00000   0.00000   0.56233
  13        2PY        -0.00387   0.00000   0.78698   0.55616   0.00000
  14        2PZ         0.00131   0.00000  -0.10897  -0.08181   0.00000
  15        3S          0.08108   0.00000  -0.00662  -0.00143   0.00000
  16        3PX         0.00000   0.00196   0.00000   0.00000   0.04661
  17        3PY        -0.00186   0.00000   0.06735   0.04614   0.00000
  18        3PZ         0.00082   0.00000  -0.00980  -0.00733   0.00000
  19        4S         -0.04618   0.00000   0.01288   0.00449   0.00000
  20        4PX         0.00000  -0.00132   0.00000   0.00000  -0.01599
  21        4PY         0.01228   0.00000  -0.02750  -0.01615   0.00000
  22        4PZ        -0.00272   0.00000   0.00510   0.00347   0.00000
  23 3   Cl 1S         -0.17669  -0.00184   0.00106  -0.00141  -0.00000
  24        2S          0.56795   0.00646  -0.00373   0.00482   0.00000
  25        2PX        -0.00335   0.59430  -0.33374   0.48165  -0.28117
  26        2PY         0.00193  -0.33374   0.20893  -0.27808  -0.48700
  27        2PZ         0.00131  -0.09437   0.05449  -0.08181  -0.00000
  28        3S          0.08108  -0.00573   0.00331  -0.00143  -0.00000
  29        3PX        -0.00161   0.05100  -0.02832   0.03995  -0.02330
  30        3PY         0.00093  -0.02832   0.01831  -0.02307  -0.04036
  31        3PZ         0.00082  -0.00849   0.00490  -0.00733  -0.00000
  32        4S         -0.04618   0.01115  -0.00644   0.00449   0.00000
  33        4PX         0.01064  -0.02096   0.01134  -0.01399   0.00799
  34        4PY        -0.00614   0.01134  -0.00786   0.00808   0.01384
  35        4PZ        -0.00272   0.00442  -0.00255   0.00347   0.00000
  36 4   Cl 1S         -0.17669   0.00184   0.00106  -0.00141   0.00000
  37        2S          0.56795  -0.00646  -0.00373   0.00482  -0.00000
  38        2PX         0.00335   0.59430   0.33374  -0.48165  -0.28117
  39        2PY         0.00193   0.33374   0.20893  -0.27808   0.48700
  40        2PZ         0.00131   0.09437   0.05449  -0.08181   0.00000
  41        3S          0.08108   0.00573   0.00331  -0.00143   0.00000
  42        3PX         0.00161   0.05100   0.02832  -0.03995  -0.02330
  43        3PY         0.00093   0.02832   0.01831  -0.02307   0.04036
  44        3PZ         0.00082   0.00849   0.00490  -0.00733   0.00000
  45        4S         -0.04618  -0.01115  -0.00644   0.00449  -0.00000
  46        4PX        -0.01064  -0.02096  -0.01134   0.01399   0.00799
  47        4PY        -0.00614  -0.01134  -0.00786   0.00808  -0.01384
  48        4PZ        -0.00272  -0.00442  -0.00255   0.00347  -0.00000
                          11        12        13        14        15
                        (E)--O    (E)--O    (E)--O    (E)--O    (A1)--O
     Eigenvalues --    -7.76038  -7.76038  -7.75953  -7.75953  -7.75943
   1 1   B  1S          0.00000   0.00000   0.00000   0.00000   0.00039
   2        2S          0.00000   0.00000   0.00000   0.00000   0.00166
   3        2PX         0.00000  -0.00116   0.00000  -0.00087   0.00000
   4        2PY        -0.00116   0.00000  -0.00087   0.00000   0.00000
   5        2PZ        -0.00000   0.00000  -0.00000   0.00000  -0.00096
   6        3S         -0.00000   0.00000  -0.00000   0.00000  -0.00216
   7        3PX         0.00000   0.00751   0.00000   0.00678   0.00000
   8        3PY         0.00751   0.00000   0.00678   0.00000  -0.00000
   9        3PZ         0.00000   0.00000   0.00000   0.00000   0.00775
  10 2   Cl 1S          0.00004   0.00000   0.00042   0.00000   0.00028
  11        2S         -0.00006   0.00000  -0.00147   0.00000  -0.00101
  12        2PX         0.00000   0.79284   0.00000  -0.06379   0.00000
  13        2PY        -0.00749   0.00000   0.11032   0.00000   0.08212
  14        2PZ         0.06526   0.00000   0.78513   0.00000   0.55648
  15        3S         -0.00084   0.00000   0.00151   0.00000   0.00034
  16        3PX         0.00000   0.06411   0.00000  -0.00464   0.00000
  17        3PY         0.00003   0.00000   0.00850   0.00000   0.00618
  18        3PZ         0.00573   0.00000   0.06429   0.00000   0.04524
  19        4S         -0.00164   0.00000  -0.00480   0.00000   0.00110
  20        4PX         0.00000  -0.01969   0.00000  -0.00056   0.00000
  21        4PY         0.00003   0.00000  -0.00046   0.00000  -0.00263
  22        4PZ        -0.00346   0.00000  -0.02096   0.00000  -0.01413
  23 3   Cl 1S         -0.00002   0.00003  -0.00021   0.00036   0.00028
  24        2S          0.00003  -0.00005   0.00073  -0.00127  -0.00101
  25        2PX         0.34655   0.19259  -0.07539   0.06679   0.07112
  26        2PY         0.59276   0.34655  -0.02026  -0.07539  -0.04106
  27        2PZ        -0.03263   0.05652  -0.39257   0.67994   0.55648
  28        3S          0.00042  -0.00073  -0.00075   0.00130   0.00034
  29        3PX         0.02775   0.01605  -0.00569   0.00521   0.00535
  30        3PY         0.04809   0.02775  -0.00135  -0.00569  -0.00309
  31        3PZ        -0.00286   0.00496  -0.03214   0.05567   0.04524
  32        4S          0.00082  -0.00142   0.00240  -0.00415   0.00110
  33        4PX        -0.00854  -0.00490  -0.00004  -0.00049  -0.00228
  34        4PY        -0.01476  -0.00854  -0.00053  -0.00004   0.00132
  35        4PZ         0.00173  -0.00300   0.01048  -0.01815  -0.01413
  36 4   Cl 1S         -0.00002  -0.00003  -0.00021  -0.00036   0.00028
  37        2S          0.00003   0.00005   0.00073   0.00127  -0.00101
  38        2PX        -0.34655   0.19259   0.07539   0.06679  -0.07112
  39        2PY         0.59276  -0.34655  -0.02026   0.07539  -0.04106
  40        2PZ        -0.03263  -0.05652  -0.39257  -0.67994   0.55648
  41        3S          0.00042   0.00073  -0.00075  -0.00130   0.00034
  42        3PX        -0.02775   0.01605   0.00569   0.00521  -0.00535
  43        3PY         0.04809  -0.02775  -0.00135   0.00569  -0.00309
  44        3PZ        -0.00286  -0.00496  -0.03214  -0.05567   0.04524
  45        4S          0.00082   0.00142   0.00240   0.00415   0.00110
  46        4PX         0.00854  -0.00490   0.00004  -0.00049   0.00228
  47        4PY        -0.01476   0.00854  -0.00053   0.00004   0.00132
  48        4PZ         0.00173   0.00300   0.01048   0.01815  -0.01413
                          16        17        18        19        20
                        (A1)--O   (A1)--O   (E)--O    (E)--O    (A1)--O
     Eigenvalues --    -7.49304  -0.93294  -0.88382  -0.88382  -0.45654
   1 1   B  1S          0.98968  -0.07459   0.00000  -0.00000  -0.13908
   2        2S          0.09440   0.08720   0.00000  -0.00000   0.15058
   3        2PX         0.00000   0.00000   0.08601   0.00000   0.00000
   4        2PY         0.00000  -0.00000   0.00000   0.08601   0.00000
   5        2PZ        -0.00439  -0.05393   0.00000  -0.00000  -0.11052
   6        3S         -0.07377   0.09735   0.00000   0.00000   0.39855
   7        3PX         0.00000   0.00000  -0.01849   0.00000   0.00000
   8        3PY         0.00000   0.00000   0.00000  -0.01849   0.00000
   9        3PZ         0.01848  -0.02401   0.00000  -0.00000  -0.10360
  10 2   Cl 1S         -0.00013   0.04268   0.00000   0.06485  -0.01643
  11        2S          0.00056  -0.25040   0.00000  -0.38158   0.09919
  12        2PX         0.00000   0.00000  -0.00501   0.00000   0.00000
  13        2PY        -0.00132   0.02466   0.00000   0.01840   0.12127
  14        2PZ         0.00013  -0.00515   0.00000  -0.00697  -0.02100
  15        3S         -0.00531   0.31556   0.00000   0.46637  -0.10769
  16        3PX         0.00000   0.00000   0.01069   0.00000   0.00000
  17        3PY         0.00059  -0.05151   0.00000  -0.03707  -0.25878
  18        3PZ         0.00041   0.00947   0.00000   0.01354   0.04279
  19        4S          0.02138   0.24927   0.00000   0.45007  -0.23064
  20        4PX         0.00000   0.00000   0.00614   0.00000   0.00000
  21        4PY        -0.01074  -0.01488   0.00000  -0.03940  -0.13593
  22        4PZ        -0.00000   0.00895   0.00000   0.01549   0.03093
  23 3   Cl 1S         -0.00013   0.04268   0.05616  -0.03243  -0.01643
  24        2S          0.00056  -0.25040  -0.33046   0.19079   0.09919
  25        2PX        -0.00114   0.02136   0.01255  -0.01014   0.10502
  26        2PY         0.00066  -0.01233  -0.01014   0.00084  -0.06064
  27        2PZ         0.00013  -0.00515  -0.00604   0.00348  -0.02100
  28        3S         -0.00531   0.31556   0.40389  -0.23319  -0.10769
  29        3PX         0.00051  -0.04461  -0.02513   0.02068  -0.22411
  30        3PY        -0.00029   0.02575   0.02068  -0.00125   0.12939
  31        3PZ         0.00041   0.00947   0.01173  -0.00677   0.04279
  32        4S          0.02138   0.24927   0.38977  -0.22503  -0.23064
  33        4PX        -0.00930  -0.01289  -0.02801   0.01972  -0.11772
  34        4PY         0.00537   0.00744   0.01972  -0.00524   0.06796
  35        4PZ        -0.00000   0.00895   0.01341  -0.00774   0.03093
  36 4   Cl 1S         -0.00013   0.04268  -0.05616  -0.03243  -0.01643
  37        2S          0.00056  -0.25040   0.33046   0.19079   0.09919
  38        2PX         0.00114  -0.02136   0.01255   0.01014  -0.10502
  39        2PY         0.00066  -0.01233   0.01014   0.00084  -0.06064
  40        2PZ         0.00013  -0.00515   0.00604   0.00348  -0.02100
  41        3S         -0.00531   0.31556  -0.40389  -0.23319  -0.10769
  42        3PX        -0.00051   0.04461  -0.02513  -0.02068   0.22411
  43        3PY        -0.00029   0.02575  -0.02068  -0.00125   0.12939
  44        3PZ         0.00041   0.00947  -0.01173  -0.00677   0.04279
  45        4S          0.02138   0.24927  -0.38977  -0.22503  -0.23064
  46        4PX         0.00930   0.01289  -0.02801  -0.01972   0.11772
  47        4PY         0.00537   0.00744  -0.01972  -0.00524   0.06796
  48        4PZ        -0.00000   0.00895  -0.01341  -0.00774   0.03093
                          21        22        23        24        25
                        (E)--O    (E)--O    (A1)--O   (E)--O    (E)--O
     Eigenvalues --    -0.35095  -0.35095  -0.30989  -0.27930  -0.27930
   1 1   B  1S          0.00000   0.00000  -0.03048  -0.00000   0.00000
   2        2S          0.00000   0.00000   0.05006  -0.00000   0.00000
   3        2PX         0.00000   0.21194   0.00000   0.00000   0.09448
   4        2PY        -0.21194   0.00000   0.00000   0.09448   0.00000
   5        2PZ        -0.00000   0.00000   0.06399  -0.00000   0.00000
   6        3S         -0.00000   0.00000   0.00032   0.00000   0.00000
   7        3PX         0.00000   0.09788   0.00000   0.00000   0.01000
   8        3PY        -0.09788   0.00000   0.00000   0.01000   0.00000
   9        3PZ         0.00000   0.00000   0.09773  -0.00000   0.00000
  10 2   Cl 1S          0.00983   0.00000  -0.00072  -0.00167   0.00000
  11        2S         -0.05955   0.00000   0.00420   0.01018   0.00000
  12        2PX         0.00000  -0.12686   0.00000   0.00000   0.13854
  13        2PY        -0.14961   0.00000  -0.03127   0.04465   0.00000
  14        2PZ         0.05875   0.00000  -0.14645  -0.16998   0.00000
  15        3S          0.07551   0.00000  -0.01595  -0.01832   0.00000
  16        3PX         0.00000   0.27288   0.00000   0.00000  -0.29676
  17        3PY         0.31833   0.00000   0.06831  -0.09481   0.00000
  18        3PZ        -0.12629   0.00000   0.31340   0.36409   0.00000
  19        4S          0.11329   0.00000   0.02839  -0.00394   0.00000
  20        4PX         0.00000   0.22094   0.00000   0.00000  -0.27880
  21        4PY         0.25290   0.00000   0.04066  -0.08674   0.00000
  22        4PZ        -0.08950   0.00000   0.28008   0.33407   0.00000
  23 3   Cl 1S         -0.00491  -0.00851  -0.00072   0.00084  -0.00145
  24        2S          0.02977   0.05157   0.00420  -0.00509   0.00882
  25        2PX         0.11972   0.08049  -0.02708   0.04066   0.06812
  26        2PY         0.05774  -0.11972   0.01563   0.11507   0.04066
  27        2PZ        -0.02938  -0.05088  -0.14645   0.08499  -0.14720
  28        3S         -0.03776  -0.06539  -0.01595   0.00916  -0.01587
  29        3PX        -0.25600  -0.17053   0.05916  -0.08744  -0.14530
  30        3PY        -0.12507   0.25600  -0.03415  -0.24627  -0.08744
  31        3PZ         0.06315   0.10937   0.31340  -0.18204   0.31531
  32        4S         -0.05664  -0.09811   0.02839   0.00197  -0.00341
  33        4PX        -0.20518  -0.13444   0.03521  -0.08316  -0.13476
  34        4PY        -0.10248   0.20518  -0.02033  -0.23078  -0.08316
  35        4PZ         0.04475   0.07751   0.28008  -0.16703   0.28931
  36 4   Cl 1S         -0.00491   0.00851  -0.00072   0.00084   0.00145
  37        2S          0.02977  -0.05157   0.00420  -0.00509  -0.00882
  38        2PX        -0.11972   0.08049   0.02708  -0.04066   0.06812
  39        2PY         0.05774   0.11972   0.01563   0.11507  -0.04066
  40        2PZ        -0.02938   0.05088  -0.14645   0.08499   0.14720
  41        3S         -0.03776   0.06539  -0.01595   0.00916   0.01587
  42        3PX         0.25600  -0.17053  -0.05916   0.08744  -0.14530
  43        3PY        -0.12507  -0.25600  -0.03415  -0.24627   0.08744
  44        3PZ         0.06315  -0.10937   0.31340  -0.18204  -0.31531
  45        4S         -0.05664   0.09811   0.02839   0.00197   0.00341
  46        4PX         0.20518  -0.13444  -0.03521   0.08316  -0.13476
  47        4PY        -0.10248  -0.20518  -0.02033  -0.23078   0.08316
  48        4PZ         0.04475  -0.07751   0.28008  -0.16703  -0.28931
                          26        27        28        29        30
                        (E)--O    (E)--O    (A2)--O   (A1)--V   (A1)--V
     Eigenvalues --    -0.25802  -0.25802  -0.24910   0.29879   0.39902
   1 1   B  1S          0.00000   0.00000   0.00000  -0.12959  -0.19214
   2        2S          0.00000   0.00000   0.00000   0.09256   0.10780
   3        2PX         0.00000  -0.07018  -0.00000   0.00000   0.00000
   4        2PY        -0.07018   0.00000   0.00000  -0.00000  -0.00000
   5        2PZ        -0.00000   0.00000   0.00000   0.23285  -0.31166
   6        3S         -0.00000   0.00000   0.00000   0.75538   2.10637
   7        3PX         0.00000   0.05249  -0.00000   0.00000   0.00000
   8        3PY         0.05249   0.00000   0.00000  -0.00000  -0.00000
   9        3PZ         0.00000   0.00000   0.00000   0.62928  -1.06683
  10 2   Cl 1S         -0.00062   0.00000   0.00000  -0.00831  -0.01527
  11        2S          0.00394   0.00000   0.00000   0.05096   0.09760
  12        2PX         0.00000  -0.11562  -0.16666   0.00000   0.00000
  13        2PY        -0.15161   0.00000   0.00000  -0.03591  -0.08469
  14        2PZ        -0.13221   0.00000   0.00000   0.06294  -0.00322
  15        3S          0.00058   0.00000   0.00000  -0.10639  -0.05544
  16        3PX         0.00000   0.24983   0.36107   0.00000   0.00000
  17        3PY         0.32577   0.00000   0.00000   0.08105   0.16125
  18        3PZ         0.28555   0.00000   0.00000  -0.13744   0.01113
  19        4S         -0.04108   0.00000   0.00000  -0.02300  -0.71736
  20        4PX         0.00000   0.22230   0.32656   0.00000   0.00000
  21        4PY         0.31975   0.00000   0.00000   0.08719   0.75458
  22        4PZ         0.25265   0.00000   0.00000  -0.22834  -0.04077
  23 3   Cl 1S          0.00031  -0.00054  -0.00000  -0.00831  -0.01527
  24        2S         -0.00197   0.00341   0.00000   0.05096   0.09760
  25        2PX         0.01558  -0.14261   0.08333  -0.03110  -0.07334
  26        2PY        -0.12462   0.01558   0.14434   0.01796   0.04234
  27        2PZ         0.06611  -0.11450  -0.00000   0.06294  -0.00322
  28        3S         -0.00029   0.00050   0.00000  -0.10639  -0.05544
  29        3PX        -0.03288   0.30679  -0.18053   0.07019   0.13965
  30        3PY         0.26882  -0.03288  -0.31269  -0.04053  -0.08063
  31        3PZ        -0.14277   0.24729   0.00000  -0.13744   0.01113
  32        4S          0.02054  -0.03558  -0.00000  -0.02300  -0.71736
  33        4PX        -0.04220   0.29539  -0.16328   0.07551   0.65348
  34        4PY         0.24666  -0.04220  -0.28281  -0.04359  -0.37729
  35        4PZ        -0.12632   0.21880   0.00000  -0.22834  -0.04077
  36 4   Cl 1S          0.00031   0.00054   0.00000  -0.00831  -0.01527
  37        2S         -0.00197  -0.00341  -0.00000   0.05096   0.09760
  38        2PX        -0.01558  -0.14261   0.08333   0.03110   0.07334
  39        2PY        -0.12462  -0.01558  -0.14434   0.01796   0.04234
  40        2PZ         0.06611   0.11450   0.00000   0.06294  -0.00322
  41        3S         -0.00029  -0.00050  -0.00000  -0.10639  -0.05544
  42        3PX         0.03288   0.30679  -0.18053  -0.07019  -0.13965
  43        3PY         0.26882   0.03288   0.31269  -0.04053  -0.08063
  44        3PZ        -0.14277  -0.24729  -0.00000  -0.13744   0.01113
  45        4S          0.02054   0.03558   0.00000  -0.02300  -0.71736
  46        4PX         0.04220   0.29539  -0.16328  -0.07551  -0.65348
  47        4PY         0.24666   0.04220   0.28281  -0.04359  -0.37729
  48        4PZ        -0.12632  -0.21880  -0.00000  -0.22834  -0.04077
                          31        32        33        34        35
                        (E)--V    (E)--V    (E)--V    (E)--V    (A1)--V
     Eigenvalues --     0.44410   0.44410   0.83672   0.83672   0.85750
   1 1   B  1S          0.00000  -0.00000   0.00000   0.00000   0.05346
   2        2S          0.00000   0.00000   0.00000   0.00000  -0.42354
   3        2PX         0.40286   0.00000   0.00000  -1.10386   0.00000
   4        2PY         0.00000   0.40286  -1.10386   0.00000   0.00000
   5        2PZ         0.00000  -0.00000  -0.00000   0.00000   0.48930
   6        3S          0.00000   0.00000  -0.00000   0.00000  -0.23350
   7        3PX         1.66281   0.00000   0.00000   1.51099   0.00000
   8        3PY         0.00000   1.66281   1.51099   0.00000   0.00000
   9        3PZ         0.00000  -0.00000   0.00000   0.00000  -0.20708
  10 2   Cl 1S          0.00000  -0.02000  -0.00738   0.00000  -0.03115
  11        2S          0.00000   0.12725   0.04745   0.00000   0.18969
  12        2PX         0.04931   0.00000   0.00000   0.06078   0.00000
  13        2PY         0.00000  -0.06237   0.08757   0.00000   0.01726
  14        2PZ         0.00000   0.04961   0.01656   0.00000  -0.08005
  15        3S          0.00000  -0.11646  -0.16906   0.00000  -0.87335
  16        3PX        -0.10308   0.00000   0.00000  -0.18854   0.00000
  17        3PY         0.00000   0.10921  -0.23702   0.00000  -0.02779
  18        3PZ         0.00000  -0.09852  -0.07057   0.00000   0.25732
  19        4S          0.00000  -0.90872  -0.43694   0.00000   0.87928
  20        4PX        -0.33819   0.00000   0.00000  -0.09139   0.00000
  21        4PY         0.00000   0.73782   0.30975   0.00000  -0.10511
  22        4PZ         0.00000  -0.39939  -0.06757   0.00000  -0.13613
  23 3   Cl 1S         -0.01732   0.01000   0.00369  -0.00639  -0.03115
  24        2S          0.11020  -0.06363  -0.02372   0.04109   0.18969
  25        2PX        -0.03445   0.04836  -0.01160   0.08087   0.01495
  26        2PY         0.04836   0.02139   0.06748  -0.01160  -0.00863
  27        2PZ         0.04297  -0.02481  -0.00828   0.01434  -0.08005
  28        3S         -0.10086   0.05823   0.08453  -0.14641  -0.87335
  29        3PX         0.05614  -0.09192   0.02099  -0.22490  -0.02407
  30        3PY        -0.09192  -0.05001  -0.20066   0.02099   0.01390
  31        3PZ        -0.08532   0.04926   0.03529  -0.06112   0.25732
  32        4S         -0.78697   0.45436   0.21847  -0.37840   0.87928
  33        4PX         0.46882  -0.46593  -0.17370   0.20946  -0.09103
  34        4PY        -0.46593  -0.06919   0.00889  -0.17370   0.05256
  35        4PZ        -0.34588   0.19970   0.03379  -0.05852  -0.13613
  36 4   Cl 1S          0.01732   0.01000   0.00369   0.00639  -0.03115
  37        2S         -0.11020  -0.06363  -0.02372  -0.04109   0.18969
  38        2PX        -0.03445  -0.04836   0.01160   0.08087  -0.01495
  39        2PY        -0.04836   0.02139   0.06748   0.01160  -0.00863
  40        2PZ        -0.04297  -0.02481  -0.00828  -0.01434  -0.08005
  41        3S          0.10086   0.05823   0.08453   0.14641  -0.87335
  42        3PX         0.05614   0.09192  -0.02099  -0.22490   0.02407
  43        3PY         0.09192  -0.05001  -0.20066  -0.02099   0.01390
  44        3PZ         0.08532   0.04926   0.03529   0.06112   0.25732
  45        4S          0.78697   0.45436   0.21847   0.37840   0.87928
  46        4PX         0.46882   0.46593   0.17370   0.20946   0.09103
  47        4PY         0.46593  -0.06919   0.00889   0.17370   0.05256
  48        4PZ         0.34588   0.19970   0.03379   0.05852  -0.13613
                          36        37        38        39        40
                        (A1)--V   (E)--V    (E)--V    (A1)--V   (E)--V
     Eigenvalues --     0.89114   0.93500   0.93500   0.95801   0.96055
   1 1   B  1S          0.08604   0.00000   0.00000  -0.00591   0.00000
   2        2S         -0.33296   0.00000  -0.00000  -0.07956   0.00000
   3        2PX         0.00000   0.23172   0.00000   0.00000   0.00000
   4        2PY         0.00000   0.00000   0.23172   0.00000   0.05337
   5        2PZ        -0.98747   0.00000  -0.00000   0.12109  -0.00000
   6        3S         -0.78773   0.00000   0.00000   1.30145  -0.00000
   7        3PX         0.00000  -0.98778   0.00000   0.00000   0.00000
   8        3PY         0.00000   0.00000  -0.98778  -0.00000  -0.49152
   9        3PZ         1.24447   0.00000   0.00000  -0.70523   0.00000
  10 2   Cl 1S         -0.01564   0.00000  -0.04072  -0.00312   0.00569
  11        2S          0.09353   0.00000   0.24672   0.02178  -0.03611
  12        2PX         0.00000   0.05701   0.00000   0.00000   0.00000
  13        2PY         0.00336   0.00000   0.14375   0.19286  -0.12940
  14        2PZ         0.02966   0.00000  -0.10448   0.07200  -0.07697
  15        3S         -0.49718   0.00000  -1.15844   0.00925   0.10785
  16        3PX         0.00000  -0.21376   0.00000   0.00000   0.00000
  17        3PY         0.00108   0.00000  -0.50171  -0.67545   0.44798
  18        3PZ        -0.09489   0.00000   0.35307  -0.25048   0.26210
  19        4S          0.82865   0.00000   1.54752  -0.37761   0.12509
  20        4PX         0.00000   0.38849   0.00000   0.00000   0.00000
  21        4PY        -0.30704   0.00000   0.25433   0.93011  -0.54386
  22        4PZ        -0.00429   0.00000  -0.17072   0.22456  -0.16279
  23 3   Cl 1S         -0.01564  -0.03526   0.02036  -0.00312  -0.00284
  24        2S          0.09353   0.21367  -0.12336   0.02178   0.01806
  25        2PX         0.00291   0.12206  -0.03756   0.16702   0.16325
  26        2PY        -0.00168  -0.03756   0.07870  -0.09643   0.15336
  27        2PZ         0.02966  -0.09048   0.05224   0.07200   0.03848
  28        3S         -0.49718  -1.00324   0.57922   0.00925  -0.05392
  29        3PX         0.00093  -0.42972   0.12469  -0.58496  -0.56480
  30        3PY        -0.00054   0.12469  -0.28575   0.33773  -0.53027
  31        3PZ        -0.09489   0.30577  -0.17654  -0.25048  -0.13105
  32        4S          0.82865   1.34019  -0.77376  -0.37761  -0.06255
  33        4PX        -0.26590   0.28787   0.05810   0.80550   0.60341
  34        4PY         0.15352   0.05810   0.35495  -0.46505   0.50127
  35        4PZ        -0.00429  -0.14785   0.08536   0.22456   0.08140
  36 4   Cl 1S         -0.01564   0.03526   0.02036  -0.00312  -0.00284
  37        2S          0.09353  -0.21367  -0.12336   0.02178   0.01806
  38        2PX        -0.00291   0.12206   0.03756  -0.16702  -0.16325
  39        2PY        -0.00168   0.03756   0.07870  -0.09643   0.15336
  40        2PZ         0.02966   0.09048   0.05224   0.07200   0.03848
  41        3S         -0.49718   1.00324   0.57922   0.00925  -0.05392
  42        3PX        -0.00093  -0.42972  -0.12469   0.58496   0.56480
  43        3PY        -0.00054  -0.12469  -0.28575   0.33773  -0.53027
  44        3PZ        -0.09489  -0.30577  -0.17654  -0.25048  -0.13105
  45        4S          0.82865  -1.34019  -0.77376  -0.37761  -0.06255
  46        4PX         0.26590   0.28787  -0.05810  -0.80550  -0.60341
  47        4PY         0.15352  -0.05810   0.35495  -0.46505   0.50127
  48        4PZ        -0.00429   0.14785   0.08536   0.22456   0.08140
                          41        42        43        44        45
                        (E)--V    (A1)--V   (E)--V    (E)--V    (A2)--V
     Eigenvalues --     0.96055   1.03276   1.05718   1.05718   1.09673
   1 1   B  1S          0.00000  -0.00092  -0.00000   0.00000   0.00000
   2        2S          0.00000  -0.06407   0.00000   0.00000   0.00000
   3        2PX        -0.05337   0.00000   0.00000  -0.24518  -0.00000
   4        2PY         0.00000   0.00000  -0.24518   0.00000   0.00000
   5        2PZ         0.00000  -0.32393  -0.00000   0.00000   0.00000
   6        3S          0.00000   1.24123   0.00000   0.00000   0.00000
   7        3PX         0.49152   0.00000   0.00000   1.15695   0.00000
   8        3PY         0.00000  -0.00000   1.15695   0.00000   0.00000
   9        3PZ         0.00000   0.35926   0.00000   0.00000   0.00000
  10 2   Cl 1S          0.00000   0.01144   0.00820   0.00000   0.00000
  11        2S          0.00000  -0.06789  -0.04726   0.00000   0.00000
  12        2PX        -0.24762   0.00000   0.00000  -0.10174   0.20376
  13        2PY         0.00000   0.07668  -0.03968   0.00000   0.00000
  14        2PZ         0.00000  -0.17020  -0.25608   0.00000   0.00000
  15        3S          0.00000   0.40872   0.31867   0.00000   0.00000
  16        3PX         0.85636   0.00000   0.00000   0.37744  -0.73854
  17        3PY         0.00000  -0.28591   0.14781   0.00000   0.00000
  18        3PZ         0.00000   0.61262   0.91548   0.00000   0.00000
  19        4S          0.00000  -0.62236  -0.83781   0.00000   0.00000
  20        4PX        -0.84964   0.00000   0.00000  -0.58824   0.81942
  21        4PY         0.00000   0.47934   0.10633   0.00000   0.00000
  22        4PZ         0.00000  -0.76041  -1.11746   0.00000   0.00000
  23 3   Cl 1S         -0.00493   0.01144  -0.00410   0.00710   0.00000
  24        2S          0.03128  -0.06789   0.02363  -0.04093  -0.00000
  25        2PX         0.03514   0.06641  -0.02687  -0.05519  -0.10188
  26        2PY        -0.16325  -0.03834  -0.08622  -0.02687  -0.17646
  27        2PZ         0.06665  -0.17020   0.12804  -0.22178  -0.00000
  28        3S         -0.09340   0.40872  -0.15934   0.27598   0.00000
  29        3PX        -0.12190  -0.24760   0.09943   0.20522   0.36927
  30        3PY         0.56480   0.14295   0.32003   0.09943   0.63960
  31        3PZ        -0.22699   0.61262  -0.45774   0.79283   0.00000
  32        4S         -0.10833  -0.62236   0.41891  -0.72557  -0.00000
  33        4PX         0.19549   0.41512  -0.30076  -0.06731  -0.40971
  34        4PY        -0.60341  -0.23967  -0.41460  -0.30076  -0.70964
  35        4PZ         0.14098  -0.76041   0.55873  -0.96775  -0.00000
  36 4   Cl 1S          0.00493   0.01144  -0.00410  -0.00710  -0.00000
  37        2S         -0.03128  -0.06789   0.02363   0.04093   0.00000
  38        2PX         0.03514  -0.06641   0.02687  -0.05519  -0.10188
  39        2PY         0.16325  -0.03834  -0.08622   0.02687   0.17646
  40        2PZ        -0.06665  -0.17020   0.12804   0.22178   0.00000
  41        3S          0.09340   0.40872  -0.15934  -0.27598  -0.00000
  42        3PX        -0.12190   0.24760  -0.09943   0.20522   0.36927
  43        3PY        -0.56480   0.14295   0.32003  -0.09943  -0.63960
  44        3PZ         0.22699   0.61262  -0.45774  -0.79283  -0.00000
  45        4S          0.10833  -0.62236   0.41891   0.72557   0.00000
  46        4PX         0.19549  -0.41512   0.30076  -0.06731  -0.40971
  47        4PY         0.60341  -0.23967  -0.41460   0.30076   0.70964
  48        4PZ        -0.14098  -0.76041   0.55873   0.96775   0.00000
                          46        47        48
                        (E)--V    (E)--V    (A1)--V
     Eigenvalues --     1.24487   1.24487   1.45944
   1 1   B  1S          0.00000  -0.00000  -0.09146
   2        2S          0.00000  -0.00000  -2.10686
   3        2PX        -0.19986   0.00000   0.00000
   4        2PY         0.00000  -0.19986   0.00000
   5        2PZ         0.00000   0.00000   0.18461
   6        3S          0.00000   0.00000   5.02446
   7        3PX        -0.85257   0.00000   0.00000
   8        3PY         0.00000  -0.85257   0.00000
   9        3PZ         0.00000  -0.00000  -1.59713
  10 2   Cl 1S          0.00000  -0.03866   0.01298
  11        2S          0.00000   0.23309  -0.06963
  12        2PX        -0.07032   0.00000   0.00000
  13        2PY         0.00000  -0.20769  -0.01057
  14        2PZ         0.00000   0.04004   0.01953
  15        3S          0.00000  -1.34893   0.71461
  16        3PX         0.25934   0.00000   0.00000
  17        3PY         0.00000   0.81384   0.02292
  18        3PZ         0.00000  -0.16171  -0.08781
  19        4S          0.00000   1.91847  -2.01192
  20        4PX        -0.21310   0.00000   0.00000
  21        4PY         0.00000  -1.38420   0.97661
  22        4PZ         0.00000   0.36356   0.01335
  23 3   Cl 1S         -0.03348   0.01933   0.01298
  24        2S          0.20186  -0.11654  -0.06963
  25        2PX        -0.17334   0.05948  -0.00916
  26        2PY         0.05948  -0.10466   0.00529
  27        2PZ         0.03468  -0.02002   0.01953
  28        3S         -1.16821   0.67447   0.71461
  29        3PX         0.67522  -0.24011   0.01985
  30        3PY        -0.24011   0.39797  -0.01146
  31        3PZ        -0.14004   0.08085  -0.08781
  32        4S          1.66144  -0.95923  -2.01192
  33        4PX        -1.09143   0.50710   0.84577
  34        4PY         0.50710  -0.50588  -0.48831
  35        4PZ         0.31485  -0.18178   0.01335
  36 4   Cl 1S          0.03348   0.01933   0.01298
  37        2S         -0.20186  -0.11654  -0.06963
  38        2PX        -0.17334  -0.05948   0.00916
  39        2PY        -0.05948  -0.10466   0.00529
  40        2PZ        -0.03468  -0.02002   0.01953
  41        3S          1.16821   0.67447   0.71461
  42        3PX         0.67522   0.24011  -0.01985
  43        3PY         0.24011   0.39797  -0.01146
  44        3PZ         0.14004   0.08085  -0.08781
  45        4S         -1.66144  -0.95923  -2.01192
  46        4PX        -1.09143  -0.50710  -0.84577
  47        4PY        -0.50710  -0.50588  -0.48831
  48        4PZ        -0.31485  -0.18178   0.01335
     Alpha Density Matrix:
                           1         2         3         4         5
   1 1   B  1S          1.02397
   2        2S          0.04050   0.07401
   3        2PX         0.00000   0.00000   0.07802
   4        2PY        -0.00000  -0.00000   0.00000   0.07802
   5        2PZ        -0.04825   0.05875   0.00000   0.00000   0.22054
   6        3S         -0.23776   0.18982  -0.00000   0.00000   0.26943
   7        3PX        -0.00000   0.00000   0.02539   0.00000   0.00000
   8        3PY         0.00000  -0.00000  -0.00000   0.02539  -0.00000
   9        3PZ        -0.01804   0.05105   0.00000  -0.00000   0.21321
  10 2   Cl 1S          0.00006   0.00306   0.00000   0.00341  -0.00323
  11        2S          0.00008  -0.00710  -0.00000  -0.01959   0.01858
  12        2PX        -0.00000   0.00000  -0.00764   0.00000  -0.00000
  13        2PY        -0.01457   0.01461   0.00000   0.05251  -0.03036
  14        2PZ         0.00029  -0.00189  -0.00000  -0.02105   0.01439
  15        3S         -0.00931   0.00491   0.00000   0.02366  -0.02546
  16        3PX         0.00000  -0.00000   0.01466  -0.00000   0.00000
  17        3PY         0.02975  -0.02981  -0.00000  -0.11075   0.06569
  18        3PZ         0.00089   0.00549   0.00000   0.04330  -0.03251
  19        4S          0.05106  -0.03068   0.00000   0.01096  -0.02808
  20        4PX        -0.00000  -0.00000   0.00468  -0.00000   0.00000
  21        4PY        -0.00594  -0.00351  -0.00000  -0.09184   0.05821
  22        4PZ         0.01320  -0.01129   0.00000   0.03205  -0.06678
  23 3   Cl 1S          0.00006   0.00306   0.00295  -0.00170  -0.00323
  24        2S          0.00008  -0.00710  -0.01697   0.00980   0.01858
  25        2PX        -0.01262   0.01265   0.03747  -0.02605  -0.02629
  26        2PY         0.00729  -0.00730  -0.02605   0.00740   0.01518
  27        2PZ         0.00029  -0.00189  -0.01823   0.01052   0.01439
  28        3S         -0.00931   0.00491   0.02049  -0.01183  -0.02546
  29        3PX         0.02576  -0.02581  -0.07939   0.05430   0.05689
  30        3PY        -0.01488   0.01490   0.05430  -0.01669  -0.03284
  31        3PZ         0.00089   0.00549   0.03750  -0.02165  -0.03251
  32        4S          0.05106  -0.03068   0.00949  -0.00548  -0.02808
  33        4PX        -0.00514  -0.00304  -0.06771   0.04180   0.05041
  34        4PY         0.00297   0.00175   0.04180  -0.01945  -0.02910
  35        4PZ         0.01320  -0.01129   0.02776  -0.01603  -0.06678
  36 4   Cl 1S          0.00006   0.00306  -0.00295  -0.00170  -0.00323
  37        2S          0.00008  -0.00710   0.01697   0.00980   0.01858
  38        2PX         0.01262  -0.01265   0.03747   0.02605   0.02629
  39        2PY         0.00729  -0.00730   0.02605   0.00740   0.01518
  40        2PZ         0.00029  -0.00189   0.01823   0.01052   0.01439
  41        3S         -0.00931   0.00491  -0.02049  -0.01183  -0.02546
  42        3PX        -0.02576   0.02581  -0.07939  -0.05430  -0.05689
  43        3PY        -0.01488   0.01490  -0.05430  -0.01669  -0.03284
  44        3PZ         0.00089   0.00549  -0.03750  -0.02165  -0.03251
  45        4S          0.05106  -0.03068  -0.00949  -0.00548  -0.02808
  46        4PX         0.00514   0.00304  -0.06771  -0.04180  -0.05041
  47        4PY         0.00297   0.00175  -0.04180  -0.01945  -0.02910
  48        4PZ         0.01320  -0.01129  -0.02776  -0.01603  -0.06678
                           6         7         8         9        10
   6        3S          0.71792
   7        3PX         0.00000   0.01826
   8        3PY        -0.00000  -0.00000   0.01826
   9        3PZ         0.23688   0.00000  -0.00000   0.20990
  10 2   Cl 1S         -0.02055  -0.00000  -0.01104   0.00254   1.07203
  11        2S          0.06961   0.00000   0.03161   0.00075  -0.28642
  12        2PX         0.00000  -0.01380   0.00000  -0.00000  -0.00000
  13        2PY         0.02359   0.00000   0.00640  -0.03073  -0.00174
  14        2PZ         0.03312  -0.00000  -0.00694   0.02262   0.00042
  15        3S         -0.03533  -0.00000  -0.01355  -0.01645  -0.01608
  16        3PX        -0.00000   0.04176  -0.00000   0.00000   0.00000
  17        3PY        -0.06752  -0.00000  -0.02761   0.07319   0.00481
  18        3PZ        -0.07316   0.00000   0.03016  -0.04007  -0.00124
  19        4S         -0.15681  -0.00000  -0.02688  -0.01054   0.08258
  20        4PX         0.00000   0.03308  -0.00000   0.00000  -0.00000
  21        4PY         0.01394  -0.00000  -0.01716   0.05992  -0.00850
  22        4PZ        -0.13038   0.00000   0.02208  -0.07193   0.00343
  23 3   Cl 1S         -0.02055  -0.00956   0.00552   0.00254   0.00001
  24        2S          0.06961   0.02737  -0.01580   0.00075  -0.00002
  25        2PX         0.02043   0.00135  -0.00875  -0.02661  -0.00006
  26        2PY        -0.01179  -0.00875  -0.00875   0.01536   0.00073
  27        2PZ         0.03312  -0.00601   0.00347   0.02262  -0.00043
  28        3S         -0.03533  -0.01174   0.00678  -0.01645   0.00065
  29        3PX        -0.05847  -0.01027   0.03003   0.06338  -0.00010
  30        3PY         0.03376   0.03003   0.02442  -0.03659  -0.00130
  31        3PZ        -0.07316   0.02612  -0.01508  -0.04007   0.00102
  32        4S         -0.15681  -0.02328   0.01344  -0.01054   0.00007
  33        4PX         0.01207  -0.00460   0.02176   0.05189   0.00025
  34        4PY        -0.00697   0.02176   0.02052  -0.02996  -0.00120
  35        4PZ        -0.13038   0.01912  -0.01104  -0.07193   0.00068
  36 4   Cl 1S         -0.02055   0.00956   0.00552   0.00254   0.00001
  37        2S          0.06961  -0.02737  -0.01580   0.00075  -0.00002
  38        2PX        -0.02043   0.00135   0.00875   0.02661   0.00006
  39        2PY        -0.01179   0.00875  -0.00875   0.01536   0.00073
  40        2PZ         0.03312   0.00601   0.00347   0.02262  -0.00043
  41        3S         -0.03533   0.01174   0.00678  -0.01645   0.00065
  42        3PX         0.05847  -0.01027  -0.03003  -0.06338   0.00010
  43        3PY         0.03376  -0.03003   0.02442  -0.03659  -0.00130
  44        3PZ        -0.07316  -0.02612  -0.01508  -0.04007   0.00102
  45        4S         -0.15681   0.02328   0.01344  -0.01054   0.00007
  46        4PX        -0.01207  -0.00460  -0.02176  -0.05189  -0.00025
  47        4PY        -0.00697  -0.02176   0.02052  -0.02996  -0.00120
  48        4PZ        -0.13038  -0.01912  -0.01104  -0.07193   0.00068
                          11        12        13        14        15
  11        2S          1.19287
  12        2PX         0.00000   1.02565
  13        2PY         0.00907  -0.00000   1.01090
  14        2PZ        -0.00202   0.00000   0.00421   1.02559
  15        3S         -0.13515  -0.00000  -0.01321   0.00298   0.35994
  16        3PX        -0.00000  -0.08773   0.00000  -0.00000   0.00000
  17        3PY        -0.02068   0.00000  -0.05505  -0.00910   0.01368
  18        3PZ         0.00460  -0.00000  -0.00945  -0.08760  -0.00109
  19        4S         -0.34397  -0.00000  -0.01633   0.00189   0.31324
  20        4PX         0.00000  -0.17069   0.00000  -0.00000   0.00000
  21        4PY         0.01271   0.00000  -0.13643  -0.00895   0.01065
  22        4PZ        -0.00792  -0.00000  -0.00691  -0.17460   0.00233
  23 3   Cl 1S         -0.00002   0.00060  -0.00042  -0.00043   0.00065
  24        2S         -0.00035  -0.00394   0.00307   0.00257  -0.00099
  25        2PX         0.00069   0.00197  -0.00323  -0.00223   0.00229
  26        2PY        -0.00494  -0.00489   0.00666   0.00031   0.00237
  27        2PZ         0.00257  -0.00085  -0.00208   0.00085  -0.00361
  28        3S         -0.00099   0.00320   0.00080  -0.00361   0.00071
  29        3PX        -0.00099  -0.00414   0.00662   0.00490  -0.00259
  30        3PY         0.01034   0.01084  -0.01404  -0.00100  -0.00853
  31        3PZ        -0.00582   0.00162   0.00441  -0.00174   0.00649
  32        4S         -0.00037   0.01472  -0.02080  -0.00622  -0.00273
  33        4PX        -0.00101  -0.00903   0.01566   0.00771  -0.00097
  34        4PY         0.00867   0.01642  -0.02472  -0.00096  -0.00798
  35        4PZ        -0.00631   0.00403   0.00752  -0.00620   0.00886
  36 4   Cl 1S         -0.00002  -0.00060  -0.00042  -0.00043   0.00065
  37        2S         -0.00035   0.00394   0.00307   0.00257  -0.00099
  38        2PX        -0.00069   0.00197   0.00323   0.00223  -0.00229
  39        2PY        -0.00494   0.00489   0.00666   0.00031   0.00237
  40        2PZ         0.00257   0.00085  -0.00208   0.00085  -0.00361
  41        3S         -0.00099  -0.00320   0.00080  -0.00361   0.00071
  42        3PX         0.00099  -0.00414  -0.00662  -0.00490   0.00259
  43        3PY         0.01034  -0.01084  -0.01404  -0.00100  -0.00853
  44        3PZ        -0.00582  -0.00162   0.00441  -0.00174   0.00649
  45        4S         -0.00037  -0.01472  -0.02080  -0.00622  -0.00273
  46        4PX         0.00101  -0.00903  -0.01566  -0.00771   0.00097
  47        4PY         0.00867  -0.01642  -0.02472  -0.00096  -0.00798
  48        4PZ        -0.00631  -0.00403   0.00752  -0.00620   0.00886
                          16        17        18        19        20
  16        3PX         0.36260
  17        3PY        -0.00000   0.29591
  18        3PZ         0.00000   0.01842   0.36258
  19        4S          0.00000   0.06405  -0.01537   0.35691
  20        4PX         0.31322  -0.00000   0.00000   0.00000   0.28056
  21        4PY        -0.00000   0.22282   0.02554   0.02301  -0.00000
  22        4PZ         0.00000   0.02043   0.32008   0.00022   0.00000
  23 3   Cl 1S         -0.00117   0.00056   0.00102   0.00007  -0.00091
  24        2S          0.00846  -0.00603  -0.00582  -0.00037   0.00700
  25        2PX        -0.00401   0.00654   0.00463  -0.01065  -0.00691
  26        2PY         0.01076  -0.01417  -0.00080   0.02314   0.01519
  27        2PZ         0.00158   0.00475  -0.00174  -0.00622   0.00302
  28        3S         -0.00868   0.00202   0.00649  -0.00273  -0.00740
  29        3PX         0.00877  -0.01468  -0.00985   0.01705   0.01441
  30        3PY        -0.02602   0.03227   0.00311  -0.04821  -0.03034
  31        3PZ        -0.00223  -0.01009   0.00311   0.02047  -0.00909
  32        4S         -0.03322   0.03887   0.02047   0.02377  -0.02772
  33        4PX         0.01973  -0.03058  -0.02089   0.00096   0.02288
  34        4PY        -0.03341   0.04959   0.00157  -0.03256  -0.03564
  35        4PZ        -0.01062  -0.01716   0.01440   0.02546  -0.01476
  36 4   Cl 1S          0.00117   0.00056   0.00102   0.00007   0.00091
  37        2S         -0.00846  -0.00603  -0.00582  -0.00037  -0.00700
  38        2PX        -0.00401  -0.00654  -0.00463   0.01065  -0.00691
  39        2PY        -0.01076  -0.01417  -0.00080   0.02314  -0.01519
  40        2PZ        -0.00158   0.00475  -0.00174  -0.00622  -0.00302
  41        3S          0.00868   0.00202   0.00649  -0.00273   0.00740
  42        3PX         0.00877   0.01468   0.00985  -0.01705   0.01441
  43        3PY         0.02602   0.03227   0.00311  -0.04821   0.03034
  44        3PZ         0.00223  -0.01009   0.00311   0.02047   0.00909
  45        4S          0.03322   0.03887   0.02047   0.02377   0.02772
  46        4PX         0.01973   0.03058   0.02089  -0.00096   0.02288
  47        4PY         0.03341   0.04959   0.00157  -0.03256   0.03564
  48        4PZ         0.01062  -0.01716   0.01440   0.02546   0.01476
                          21        22        23        24        25
  21        4PY         0.19014
  22        4PZ         0.02063   0.30043
  23 3   Cl 1S          0.00081   0.00068   1.07203
  24        2S         -0.00521  -0.00631  -0.28642   1.19287
  25        2PX         0.01443   0.00852  -0.00150   0.00785   1.01459
  26        2PY        -0.02684  -0.00027   0.00087  -0.00453   0.00638
  27        2PZ         0.00716  -0.00620   0.00042  -0.00202   0.00365
  28        3S          0.00315   0.00886  -0.01608  -0.13515  -0.01144
  29        3PX        -0.02751  -0.02017   0.00416  -0.01791  -0.06322
  30        3PY         0.05490  -0.00062  -0.00240   0.01034  -0.01415
  31        3PZ        -0.01888   0.01440  -0.00124   0.00460  -0.00819
  32        4S          0.01712   0.02546   0.08258  -0.34397  -0.01414
  33        4PX        -0.03001  -0.03048  -0.00736   0.01101  -0.14499
  34        4PY         0.06078   0.00055   0.00425  -0.00636  -0.01483
  35        4PZ        -0.02667   0.03006   0.00343  -0.00792  -0.00598
  36 4   Cl 1S          0.00081   0.00068   0.00001  -0.00002  -0.00066
  37        2S         -0.00521  -0.00631  -0.00002  -0.00035   0.00462
  38        2PX        -0.01443  -0.00852   0.00066  -0.00462   0.00901
  39        2PY        -0.02684  -0.00027  -0.00031   0.00188  -0.00083
  40        2PZ         0.00716  -0.00620  -0.00043   0.00257  -0.00138
  41        3S          0.00315   0.00886   0.00065  -0.00099  -0.00090
  42        3PX         0.02751   0.02017  -0.00108   0.00945  -0.01913
  43        3PY         0.05490  -0.00062   0.00073  -0.00431   0.00203
  44        3PZ        -0.01888   0.01440   0.00102  -0.00582   0.00301
  45        4S          0.01712   0.02546   0.00007  -0.00037  -0.02537
  46        4PX         0.03001   0.03048  -0.00116   0.00801  -0.03468
  47        4PY         0.06078   0.00055   0.00039  -0.00346  -0.00084
  48        4PZ        -0.02667   0.03006   0.00068  -0.00631   0.00450
                          26        27        28        29        30
  26        2PY         1.02196
  27        2PZ        -0.00211   1.02559
  28        3S          0.00661   0.00298   0.35994
  29        3PX        -0.01415  -0.00788   0.01185   0.31258
  30        3PY        -0.07956   0.00455  -0.00684   0.02888   0.34593
  31        3PZ         0.00473  -0.08760  -0.00109   0.01595  -0.00921
  32        4S          0.00817   0.00189   0.31324   0.05547  -0.03202
  33        4PX        -0.01483  -0.00775   0.00923   0.24542   0.03914
  34        4PY        -0.16212   0.00448  -0.00533   0.03914   0.29062
  35        4PZ         0.00345  -0.17460   0.00233   0.01769  -0.01022
  36 4   Cl 1S         -0.00031  -0.00043   0.00065   0.00108   0.00073
  37        2S          0.00188   0.00257  -0.00099  -0.00945  -0.00431
  38        2PX         0.00083   0.00138   0.00090  -0.01913  -0.00203
  39        2PY        -0.00037   0.00177  -0.00317   0.00218   0.00094
  40        2PZ         0.00177   0.00085  -0.00361   0.00332  -0.00374
  41        3S         -0.00317  -0.00361   0.00071   0.00609   0.00651
  42        3PX        -0.00218  -0.00332  -0.00609   0.04402   0.00567
  43        3PY         0.00094  -0.00374   0.00651  -0.00567  -0.00298
  44        3PZ        -0.00361  -0.00174   0.00649  -0.00762   0.00698
  45        4S         -0.00235  -0.00622  -0.00273   0.05027   0.00934
  46        4PX        -0.00160  -0.00469  -0.00643   0.06983   0.00448
  47        4PY         0.00094  -0.00619   0.00483   0.00166  -0.00052
  48        4PZ        -0.00725  -0.00620   0.00886  -0.00955   0.01777
                          31        32        33        34        35
  31        3PZ         0.36258
  32        4S         -0.01537   0.35691
  33        4PX         0.02211   0.01993   0.21274
  34        4PY        -0.01277  -0.01150   0.03916   0.25796
  35        4PZ         0.32008   0.00022   0.01787  -0.01032   0.30043
  36 4   Cl 1S          0.00102   0.00007   0.00116   0.00039   0.00068
  37        2S         -0.00582  -0.00037  -0.00801  -0.00346  -0.00631
  38        2PX        -0.00301   0.02537  -0.03468   0.00084  -0.00450
  39        2PY        -0.00361  -0.00235   0.00160   0.00094  -0.00725
  40        2PZ        -0.00174  -0.00622   0.00469  -0.00619  -0.00620
  41        3S          0.00649  -0.00273   0.00643   0.00483   0.00886
  42        3PX         0.00762  -0.05027   0.06983  -0.00166   0.00955
  43        3PY         0.00698   0.00934  -0.00448  -0.00052   0.01777
  44        3PZ         0.00311   0.02047  -0.01181   0.01731   0.01440
  45        4S          0.02047   0.02377   0.02868   0.01544   0.02546
  46        4PX         0.01181  -0.02868   0.07973   0.00281   0.01572
  47        4PY         0.01731   0.01544  -0.00281   0.00393   0.02612
  48        4PZ         0.01440   0.02546  -0.01572   0.02612   0.03006
                          36        37        38        39        40
  36 4   Cl 1S          1.07203
  37        2S         -0.28642   1.19287
  38        2PX         0.00150  -0.00785   1.01459
  39        2PY         0.00087  -0.00453  -0.00638   1.02196
  40        2PZ         0.00042  -0.00202  -0.00365  -0.00211   1.02559
  41        3S         -0.01608  -0.13515   0.01144   0.00661   0.00298
  42        3PX        -0.00416   0.01791  -0.06322   0.01415   0.00788
  43        3PY        -0.00240   0.01034   0.01415  -0.07956   0.00455
  44        3PZ        -0.00124   0.00460   0.00819   0.00473  -0.08760
  45        4S          0.08258  -0.34397   0.01414   0.00817   0.00189
  46        4PX         0.00736  -0.01101  -0.14499   0.01483   0.00775
  47        4PY         0.00425  -0.00636   0.01483  -0.16212   0.00448
  48        4PZ         0.00343  -0.00792   0.00598   0.00345  -0.17460
                          41        42        43        44        45
  41        3S          0.35994
  42        3PX        -0.01185   0.31258
  43        3PY        -0.00684  -0.02888   0.34593
  44        3PZ        -0.00109  -0.01595  -0.00921   0.36258
  45        4S          0.31324  -0.05547  -0.03202  -0.01537   0.35691
  46        4PX        -0.00923   0.24542  -0.03914  -0.02211  -0.01993
  47        4PY        -0.00533  -0.03914   0.29062  -0.01277  -0.01150
  48        4PZ         0.00233  -0.01769  -0.01022   0.32008   0.00022
                          46        47        48
  46        4PX         0.21274
  47        4PY        -0.03916   0.25796
  48        4PZ        -0.01787  -0.01032   0.30043
     Beta Density Matrix:
                           1         2         3         4         5
   1 1   B  1S          1.00531
   2        2S          0.06446   0.04180
   3        2PX         0.00000   0.00000   0.06617
   4        2PY        -0.00000  -0.00000   0.00000   0.06617
   5        2PZ         0.01310  -0.01857  -0.00000   0.00000   0.01924
   6        3S         -0.13580   0.06103  -0.00000   0.00000  -0.04890
   7        3PX         0.00000  -0.00000   0.01639  -0.00000   0.00000
   8        3PY        -0.00000   0.00000   0.00000   0.01639  -0.00000
   9        3PZ         0.03154  -0.01089   0.00000  -0.00000   0.01890
  10 2   Cl 1S         -0.00066   0.00388   0.00000   0.00339  -0.00074
  11        2S          0.00454  -0.01216  -0.00000  -0.01957   0.00325
  12        2PX        -0.00000   0.00000  -0.00697   0.00000  -0.00000
  13        2PY        -0.01838   0.01904   0.00000   0.04859  -0.01720
  14        2PZ         0.00801  -0.01004  -0.00000  -0.02066  -0.00725
  15        3S         -0.01344   0.00919   0.00000   0.02232  -0.00605
  16        3PX         0.00000  -0.00000   0.01311  -0.00000   0.00000
  17        3PY         0.03839  -0.03994  -0.00000  -0.10244   0.03571
  18        3PZ        -0.01580   0.02306   0.00000   0.04222   0.01478
  19        4S          0.03385  -0.00908   0.00000   0.01723   0.01373
  20        4PX         0.00000  -0.00000   0.00543  -0.00000   0.00000
  21        4PY         0.00811  -0.02088  -0.00000  -0.08764   0.01850
  22        4PZ        -0.01351   0.01946   0.00000   0.03416   0.01403
  23 3   Cl 1S         -0.00066   0.00388   0.00294  -0.00170  -0.00074
  24        2S          0.00454  -0.01216  -0.01695   0.00979   0.00325
  25        2PX        -0.01591   0.01649   0.03470  -0.02406  -0.01489
  26        2PY         0.00919  -0.00952  -0.02406   0.00692   0.00860
  27        2PZ         0.00801  -0.01004  -0.01789   0.01033  -0.00725
  28        3S         -0.01344   0.00919   0.01933  -0.01116  -0.00605
  29        3PX         0.03325  -0.03459  -0.07355   0.05003   0.03092
  30        3PY        -0.01920   0.01997   0.05003  -0.01578  -0.01785
  31        3PZ        -0.01580   0.02306   0.03656  -0.02111   0.01478
  32        4S          0.03385  -0.00908   0.01492  -0.00862   0.01373
  33        4PX         0.00702  -0.01808  -0.06437   0.04030   0.01602
  34        4PY        -0.00405   0.01044   0.04030  -0.01784  -0.00925
  35        4PZ        -0.01351   0.01946   0.02958  -0.01708   0.01403
  36 4   Cl 1S         -0.00066   0.00388  -0.00294  -0.00170  -0.00074
  37        2S          0.00454  -0.01216   0.01695   0.00979   0.00325
  38        2PX         0.01591  -0.01649   0.03470   0.02406   0.01489
  39        2PY         0.00919  -0.00952   0.02406   0.00692   0.00860
  40        2PZ         0.00801  -0.01004   0.01789   0.01033  -0.00725
  41        3S         -0.01344   0.00919  -0.01933  -0.01116  -0.00605
  42        3PX        -0.03325   0.03459  -0.07355  -0.05003  -0.03092
  43        3PY        -0.01920   0.01997  -0.05003  -0.01578  -0.01785
  44        3PZ        -0.01580   0.02306  -0.03656  -0.02111   0.01478
  45        4S          0.03385  -0.00908  -0.01492  -0.00862   0.01373
  46        4PX        -0.00702   0.01808  -0.06437  -0.04030  -0.01602
  47        4PY        -0.00405   0.01044  -0.04030  -0.01784  -0.00925
  48        4PZ        -0.01351   0.01946  -0.02958  -0.01708   0.01403
                           6         7         8         9        10
   6        3S          0.17675
   7        3PX        -0.00000   0.01348
   8        3PY         0.00000   0.00000   0.01348
   9        3PZ        -0.04582   0.00000  -0.00000   0.02150
  10 2   Cl 1S         -0.01641  -0.00000  -0.01096   0.00466   1.07199
  11        2S          0.04408   0.00000   0.03108  -0.01226  -0.28616
  12        2PX         0.00000  -0.01163   0.00000  -0.00000  -0.00000
  13        2PY         0.04170   0.00000   0.00048  -0.01361  -0.00181
  14        2PZ        -0.00877  -0.00000  -0.00746  -0.00800   0.00095
  15        3S         -0.00752  -0.00000  -0.01337   0.00068  -0.01650
  16        3PX        -0.00000   0.03707  -0.00000   0.00000   0.00000
  17        3PY        -0.10901  -0.00000  -0.01498   0.03497   0.00500
  18        3PZ         0.01811   0.00000   0.03135   0.02629  -0.00247
  19        4S         -0.07175  -0.00000  -0.02325   0.02181   0.08205
  20        4PX        -0.00000   0.03023  -0.00000   0.00000  -0.00000
  21        4PY        -0.05391  -0.00000  -0.00749   0.01795  -0.00812
  22        4PZ         0.01312   0.00000   0.02472   0.02390   0.00226
  23 3   Cl 1S         -0.01641  -0.00949   0.00548   0.00466  -0.00002
  24        2S          0.04408   0.02692  -0.01554  -0.01226   0.00017
  25        2PX         0.03611  -0.00255  -0.00524  -0.01179  -0.00026
  26        2PY        -0.02085  -0.00524  -0.00860   0.00680   0.00082
  27        2PZ        -0.00877  -0.00646   0.00373  -0.00800  -0.00004
  28        3S         -0.00752  -0.01158   0.00669   0.00068   0.00045
  29        3PX        -0.09441  -0.00197   0.02254   0.03028   0.00035
  30        3PY         0.05451   0.02254   0.02406  -0.01748  -0.00151
  31        3PZ         0.01811   0.02715  -0.01567   0.02629   0.00018
  32        4S         -0.07175  -0.02013   0.01162   0.02181  -0.00056
  33        4PX        -0.04668   0.00194   0.01633   0.01554   0.00083
  34        4PY         0.02695   0.01633   0.02080  -0.00897  -0.00151
  35        4PZ         0.01312   0.02140  -0.01236   0.02390  -0.00052
  36 4   Cl 1S         -0.01641   0.00949   0.00548   0.00466  -0.00002
  37        2S          0.04408  -0.02692  -0.01554  -0.01226   0.00017
  38        2PX        -0.03611  -0.00255   0.00524   0.01179   0.00026
  39        2PY        -0.02085   0.00524  -0.00860   0.00680   0.00082
  40        2PZ        -0.00877   0.00646   0.00373  -0.00800  -0.00004
  41        3S         -0.00752   0.01158   0.00669   0.00068   0.00045
  42        3PX         0.09441  -0.00197  -0.02254  -0.03028  -0.00035
  43        3PY         0.05451  -0.02254   0.02406  -0.01748  -0.00151
  44        3PZ         0.01811  -0.02715  -0.01567   0.02629   0.00018
  45        4S         -0.07175   0.02013   0.01162   0.02181  -0.00056
  46        4PX         0.04668   0.00194  -0.01633  -0.01554  -0.00083
  47        4PY         0.02695  -0.01633   0.02080  -0.00897  -0.00151
  48        4PZ         0.01312  -0.02140  -0.01236   0.02390  -0.00052
                          11        12        13        14        15
  11        2S          1.19128
  12        2PX         0.00000   1.02560
  13        2PY         0.00953  -0.00000   1.01166
  14        2PZ        -0.00525   0.00000   0.00599   1.02072
  15        3S         -0.13262  -0.00000  -0.01510   0.00966   0.35595
  16        3PX        -0.00000  -0.08748   0.00000  -0.00000   0.00000
  17        3PY        -0.02183   0.00000  -0.05658  -0.01331   0.01786
  18        3PZ         0.01206  -0.00000  -0.01330  -0.07631  -0.01587
  19        4S         -0.34055  -0.00000  -0.01265   0.00382   0.30978
  20        4PX         0.00000  -0.17140   0.00000  -0.00000   0.00000
  21        4PY         0.01033   0.00000  -0.14004  -0.01288   0.01504
  22        4PZ        -0.00067  -0.00000  -0.01196  -0.16266  -0.01155
  23 3   Cl 1S          0.00017   0.00058  -0.00064  -0.00004   0.00045
  24        2S         -0.00151  -0.00383   0.00442   0.00020   0.00024
  25        2PX         0.00191   0.00174  -0.00438  -0.00025   0.00057
  26        2PY        -0.00553  -0.00469   0.00698  -0.00074   0.00345
  27        2PZ         0.00020  -0.00077   0.00015  -0.00294   0.00024
  28        3S          0.00024   0.00327  -0.00123   0.00024  -0.00075
  29        3PX        -0.00374  -0.00364   0.00917   0.00044   0.00123
  30        3PY         0.01165   0.01042  -0.01485   0.00138  -0.01092
  31        3PZ        -0.00067   0.00140  -0.00046   0.00655  -0.00185
  32        4S          0.00358   0.01345  -0.02363  -0.00253  -0.00625
  33        4PX        -0.00460  -0.00811   0.01908   0.00295   0.00322
  34        4PY         0.01062   0.01556  -0.02494   0.00169  -0.01055
  35        4PZ         0.00109   0.00374  -0.00003   0.00654  -0.00204
  36 4   Cl 1S          0.00017  -0.00058  -0.00064  -0.00004   0.00045
  37        2S         -0.00151   0.00383   0.00442   0.00020   0.00024
  38        2PX        -0.00191   0.00174   0.00438   0.00025  -0.00057
  39        2PY        -0.00553   0.00469   0.00698  -0.00074   0.00345
  40        2PZ         0.00020   0.00077   0.00015  -0.00294   0.00024
  41        3S          0.00024  -0.00327  -0.00123   0.00024  -0.00075
  42        3PX         0.00374  -0.00364  -0.00917  -0.00044  -0.00123
  43        3PY         0.01165  -0.01042  -0.01485   0.00138  -0.01092
  44        3PZ        -0.00067  -0.00140  -0.00046   0.00655  -0.00185
  45        4S          0.00358  -0.01345  -0.02363  -0.00253  -0.00625
  46        4PX         0.00460  -0.00811  -0.01908  -0.00295  -0.00322
  47        4PY         0.01062  -0.01556  -0.02494   0.00169  -0.01055
  48        4PZ         0.00109  -0.00374  -0.00003   0.00654  -0.00204
                          16        17        18        19        20
  16        3PX         0.36173
  17        3PY        -0.00000   0.29893
  18        3PZ         0.00000   0.02746   0.33674
  19        4S          0.00000   0.05667  -0.02057   0.34030
  20        4PX         0.31453  -0.00000   0.00000   0.00000   0.28328
  21        4PY        -0.00000   0.23034   0.03431   0.02461  -0.00000
  22        4PZ         0.00000   0.03251   0.29238  -0.01110   0.00000
  23 3   Cl 1S         -0.00114   0.00106   0.00018  -0.00056  -0.00090
  24        2S          0.00823  -0.00906  -0.00067   0.00358   0.00689
  25        2PX        -0.00356   0.00913   0.00030  -0.01374  -0.00573
  26        2PY         0.01038  -0.01493   0.00144   0.02346   0.01419
  27        2PZ         0.00141  -0.00031   0.00655  -0.00253   0.00294
  28        3S         -0.00884   0.00653  -0.00185  -0.00625  -0.00753
  29        3PX         0.00780  -0.02043  -0.00007   0.02400   0.01191
  30        3PY        -0.02522   0.03416  -0.00201  -0.04906  -0.02822
  31        3PZ        -0.00178   0.00095  -0.01501   0.01235  -0.00882
  32        4S         -0.03048   0.04531   0.01235   0.00806  -0.02616
  33        4PX         0.01786  -0.03825  -0.01044   0.01252   0.02002
  34        4PY        -0.03165   0.05029  -0.00415  -0.03743  -0.03316
  35        4PZ        -0.00999  -0.00014  -0.01341   0.01031  -0.01474
  36 4   Cl 1S          0.00114   0.00106   0.00018  -0.00056   0.00090
  37        2S         -0.00823  -0.00906  -0.00067   0.00358  -0.00689
  38        2PX        -0.00356  -0.00913  -0.00030   0.01374  -0.00573
  39        2PY        -0.01038  -0.01493   0.00144   0.02346  -0.01419
  40        2PZ        -0.00141  -0.00031   0.00655  -0.00253  -0.00294
  41        3S          0.00884   0.00653  -0.00185  -0.00625   0.00753
  42        3PX         0.00780   0.02043   0.00007  -0.02400   0.01191
  43        3PY         0.02522   0.03416  -0.00201  -0.04906   0.02822
  44        3PZ         0.00178   0.00095  -0.01501   0.01235   0.00882
  45        4S          0.03048   0.04531   0.01235   0.00806   0.02616
  46        4PX         0.01786   0.03825   0.01044  -0.01252   0.02002
  47        4PY         0.03165   0.05029  -0.00415  -0.03743   0.03316
  48        4PZ         0.00999  -0.00014  -0.01341   0.01031   0.01474
                          21        22        23        24        25
  21        4PY         0.19720
  22        4PZ         0.03532   0.26391
  23 3   Cl 1S          0.00147  -0.00052   1.07199
  24        2S         -0.00929   0.00109  -0.28616   1.19128
  25        2PX         0.01770   0.00184  -0.00157   0.00826   1.01515
  26        2PY        -0.02732   0.00325   0.00091  -0.00477   0.00604
  27        2PZ         0.00171   0.00654   0.00095  -0.00525   0.00519
  28        3S          0.00807  -0.00204  -0.01650  -0.13262  -0.01308
  29        3PX        -0.03482  -0.00512   0.00433  -0.01891  -0.06431
  30        3PY         0.05623  -0.00858  -0.00250   0.01092  -0.01338
  31        3PZ        -0.00697  -0.01341  -0.00247   0.01206  -0.01152
  32        4S          0.02956   0.01031   0.08205  -0.34055  -0.01096
  33        4PX        -0.04129  -0.01358  -0.00703   0.00894  -0.14788
  34        4PY         0.06300  -0.00919   0.00406  -0.00516  -0.01358
  35        4PZ        -0.00716  -0.01240   0.00226  -0.00067  -0.01035
  36 4   Cl 1S          0.00147  -0.00052  -0.00002   0.00017  -0.00084
  37        2S         -0.00929   0.00109   0.00017  -0.00151   0.00574
  38        2PX        -0.01770  -0.00184   0.00084  -0.00574   0.00959
  39        2PY        -0.02732   0.00325  -0.00018   0.00111  -0.00016
  40        2PZ         0.00171   0.00654  -0.00004   0.00020   0.00051
  41        3S          0.00807  -0.00204   0.00045   0.00024  -0.00270
  42        3PX         0.03482   0.00512  -0.00149   0.01196  -0.02053
  43        3PY         0.05623  -0.00858   0.00046  -0.00259   0.00058
  44        3PZ        -0.00697  -0.01341   0.00018  -0.00067  -0.00110
  45        4S          0.02956   0.01031  -0.00056   0.00358  -0.02719
  46        4PX         0.04129   0.01358  -0.00172   0.01149  -0.03573
  47        4PY         0.06300  -0.00919   0.00004  -0.00132  -0.00313
  48        4PZ        -0.00716  -0.01240  -0.00052   0.00109  -0.00190
                          26        27        28        29        30
  26        2PY         1.02212
  27        2PZ        -0.00299   1.02072
  28        3S          0.00755   0.00966   0.35595
  29        3PX        -0.01338  -0.01153   0.01547   0.31463
  30        3PY        -0.07976   0.00666  -0.00893   0.02720   0.34603
  31        3PZ         0.00665  -0.07631  -0.01587   0.02378  -0.01373
  32        4S          0.00633   0.00382   0.30978   0.04907  -0.02833
  33        4PX        -0.01358  -0.01116   0.01302   0.25138   0.03646
  34        4PY        -0.16356   0.00644  -0.00752   0.03646   0.29348
  35        4PZ         0.00598  -0.16266  -0.01155   0.02816  -0.01626
  36 4   Cl 1S         -0.00018  -0.00004   0.00045   0.00149   0.00046
  37        2S          0.00111   0.00020   0.00024  -0.01196  -0.00259
  38        2PX         0.00016  -0.00051   0.00270  -0.02053  -0.00058
  39        2PY        -0.00088   0.00059  -0.00222   0.00067   0.00204
  40        2PZ         0.00059  -0.00294   0.00024  -0.00097  -0.00107
  41        3S         -0.00222   0.00024  -0.00075   0.01007   0.00440
  42        3PX        -0.00067   0.00097  -0.01007   0.04734   0.00240
  43        3PY         0.00204  -0.00107   0.00440  -0.00240  -0.00538
  44        3PZ        -0.00098   0.00655  -0.00185   0.00171   0.00106
  45        4S          0.00017  -0.00253  -0.00625   0.05448   0.00374
  46        4PX         0.00038  -0.00002  -0.01075   0.07245   0.00013
  47        4PY         0.00268  -0.00340   0.00249   0.00673  -0.00430
  48        4PZ        -0.00322   0.00654  -0.00204   0.00487   0.00872
                          31        32        33        34        35
  31        3PZ         0.33674
  32        4S         -0.02057   0.34030
  33        4PX         0.02971   0.02131   0.21872
  34        4PY        -0.01716  -0.01230   0.03728   0.26176
  35        4PZ         0.29238  -0.01110   0.03059  -0.01766   0.26391
  36 4   Cl 1S          0.00018  -0.00056   0.00172   0.00004  -0.00052
  37        2S         -0.00067   0.00358  -0.01149  -0.00132   0.00109
  38        2PX         0.00110   0.02719  -0.03573   0.00313   0.00190
  39        2PY        -0.00098   0.00017  -0.00038   0.00268  -0.00322
  40        2PZ         0.00655  -0.00253   0.00002  -0.00340   0.00654
  41        3S         -0.00185  -0.00625   0.01075   0.00249  -0.00204
  42        3PX        -0.00171  -0.05448   0.07245  -0.00673  -0.00487
  43        3PY         0.00106   0.00374  -0.00013  -0.00430   0.00872
  44        3PZ        -0.01501   0.01235  -0.00163   0.01112  -0.01341
  45        4S          0.01235   0.00806   0.03868   0.00788   0.01031
  46        4PX         0.00163  -0.03868   0.08450  -0.00407  -0.00117
  47        4PY         0.01112   0.00788   0.00407  -0.00147   0.01635
  48        4PZ        -0.01341   0.01031   0.00117   0.01635  -0.01240
                          36        37        38        39        40
  36 4   Cl 1S          1.07199
  37        2S         -0.28616   1.19128
  38        2PX         0.00157  -0.00826   1.01515
  39        2PY         0.00091  -0.00477  -0.00604   1.02212
  40        2PZ         0.00095  -0.00525  -0.00519  -0.00299   1.02072
  41        3S         -0.01650  -0.13262   0.01308   0.00755   0.00966
  42        3PX        -0.00433   0.01891  -0.06431   0.01338   0.01153
  43        3PY        -0.00250   0.01092   0.01338  -0.07976   0.00666
  44        3PZ        -0.00247   0.01206   0.01152   0.00665  -0.07631
  45        4S          0.08205  -0.34055   0.01096   0.00633   0.00382
  46        4PX         0.00703  -0.00894  -0.14788   0.01358   0.01116
  47        4PY         0.00406  -0.00516   0.01358  -0.16356   0.00644
  48        4PZ         0.00226  -0.00067   0.01035   0.00598  -0.16266
                          41        42        43        44        45
  41        3S          0.35595
  42        3PX        -0.01547   0.31463
  43        3PY        -0.00893  -0.02720   0.34603
  44        3PZ        -0.01587  -0.02378  -0.01373   0.33674
  45        4S          0.30978  -0.04907  -0.02833  -0.02057   0.34030
  46        4PX        -0.01302   0.25138  -0.03646  -0.02971  -0.02131
  47        4PY        -0.00752  -0.03646   0.29348  -0.01716  -0.01230
  48        4PZ        -0.01155  -0.02816  -0.01626   0.29238  -0.01110
                          46        47        48
  46        4PX         0.21872
  47        4PY        -0.03728   0.26176
  48        4PZ        -0.03059  -0.01766   0.26391
    Full Mulliken population analysis:
                           1         2         3         4         5
   1 1   B  1S          2.02929
   2        2S          0.01919   0.11581
   3        2PX         0.00000   0.00000   0.14419
   4        2PY         0.00000   0.00000   0.00000   0.14419
   5        2PZ         0.00000   0.00000   0.00000   0.00000   0.23978
   6        3S         -0.06494   0.19449   0.00000   0.00000   0.00000
   7        3PX         0.00000   0.00000   0.02303  -0.00000   0.00000
   8        3PY         0.00000   0.00000  -0.00000   0.02303   0.00000
   9        3PZ         0.00000   0.00000   0.00000   0.00000   0.12795
  10 2   Cl 1S         -0.00000   0.00000   0.00000   0.00000   0.00000
  11        2S          0.00000  -0.00005  -0.00000  -0.00030  -0.00006
  12        2PX         0.00000  -0.00000  -0.00001  -0.00000  -0.00000
  13        2PY         0.00000  -0.00008  -0.00000  -0.00069  -0.00013
  14        2PZ         0.00000  -0.00001  -0.00000  -0.00011  -0.00000
  15        3S         -0.00003   0.00075   0.00000   0.00441   0.00107
  16        3PX        -0.00000   0.00000   0.00084   0.00000   0.00000
  17        3PY        -0.00025   0.00645   0.00000   0.03146   0.00637
  18        3PZ        -0.00002   0.00093   0.00000   0.00537  -0.00014
  19        4S          0.00224  -0.00727   0.00000   0.00521   0.00094
  20        4PX        -0.00000   0.00000   0.00135   0.00000   0.00000
  21        4PY        -0.00015   0.00890   0.00000   0.04481   0.01038
  22        4PZ        -0.00001   0.00105   0.00000   0.00896  -0.00450
  23 3   Cl 1S         -0.00000   0.00000   0.00000   0.00000   0.00000
  24        2S          0.00000  -0.00005  -0.00023  -0.00008  -0.00006
  25        2PX         0.00000  -0.00006  -0.00035  -0.00016  -0.00010
  26        2PY         0.00000  -0.00002  -0.00016  -0.00002  -0.00003
  27        2PZ         0.00000  -0.00001  -0.00008  -0.00003  -0.00000
  28        3S         -0.00003   0.00075   0.00331   0.00110   0.00107
  29        3PX        -0.00019   0.00484   0.01578   0.00803   0.00478
  30        3PY        -0.00006   0.00161   0.00803   0.00046   0.00159
  31        3PZ        -0.00002   0.00093   0.00403   0.00134  -0.00014
  32        4S          0.00224  -0.00727   0.00391   0.00130   0.00094
  33        4PX        -0.00011   0.00667   0.02034   0.01361   0.00779
  34        4PY        -0.00004   0.00222   0.01361  -0.00139   0.00260
  35        4PZ        -0.00001   0.00105   0.00672   0.00224  -0.00450
  36 4   Cl 1S         -0.00000   0.00000   0.00000   0.00000   0.00000
  37        2S          0.00000  -0.00005  -0.00023  -0.00008  -0.00006
  38        2PX         0.00000  -0.00006  -0.00035  -0.00016  -0.00010
  39        2PY         0.00000  -0.00002  -0.00016  -0.00002  -0.00003
  40        2PZ         0.00000  -0.00001  -0.00008  -0.00003  -0.00000
  41        3S         -0.00003   0.00075   0.00331   0.00110   0.00107
  42        3PX        -0.00019   0.00484   0.01578   0.00803   0.00478
  43        3PY        -0.00006   0.00161   0.00803   0.00046   0.00159
  44        3PZ        -0.00002   0.00093   0.00403   0.00134  -0.00014
  45        4S          0.00224  -0.00727   0.00391   0.00130   0.00094
  46        4PX        -0.00011   0.00667   0.02034   0.01361   0.00779
  47        4PY        -0.00004   0.00222   0.01361  -0.00139   0.00260
  48        4PZ        -0.00001   0.00105   0.00672   0.00224  -0.00450
                           6         7         8         9        10
   6        3S          0.89466
   7        3PX         0.00000   0.03174
   8        3PY         0.00000  -0.00000   0.03174
   9        3PZ         0.00000   0.00000   0.00000   0.23140
  10 2   Cl 1S         -0.00020  -0.00000  -0.00028  -0.00003   2.14402
  11        2S          0.00481   0.00000   0.00618   0.00040  -0.14855
  12        2PX        -0.00000  -0.00026  -0.00000  -0.00000   0.00000
  13        2PY        -0.00081  -0.00000  -0.00013  -0.00045   0.00000
  14        2PZ         0.00011  -0.00000  -0.00015   0.00010   0.00000
  15        3S         -0.00862  -0.00000  -0.01038   0.00215  -0.00192
  16        3PX         0.00000   0.01046   0.00000   0.00000   0.00000
  17        3PY         0.02813   0.00000   0.00768   0.01197   0.00000
  18        3PZ        -0.00310   0.00000   0.00681  -0.00129   0.00000
  19        4S         -0.08886  -0.00000  -0.02680  -0.00213   0.00558
  20        4PX         0.00000   0.02435   0.00000   0.00000   0.00000
  21        4PY         0.01845   0.00000   0.00617   0.01748   0.00000
  22        4PZ        -0.01914   0.00000   0.01051  -0.01466   0.00000
  23 3   Cl 1S         -0.00020  -0.00021  -0.00007  -0.00003   0.00000
  24        2S          0.00481   0.00463   0.00154   0.00040   0.00000
  25        2PX        -0.00060   0.00001  -0.00017  -0.00034   0.00000
  26        2PY        -0.00020  -0.00017  -0.00005  -0.00011   0.00000
  27        2PZ         0.00011  -0.00011  -0.00004   0.00010   0.00000
  28        3S         -0.00862  -0.00778  -0.00259   0.00215   0.00000
  29        3PX         0.02110   0.00125   0.00713   0.00898  -0.00000
  30        3PY         0.00703   0.00713   0.00264   0.00299  -0.00000
  31        3PZ        -0.00310   0.00511   0.00170  -0.00129   0.00000
  32        4S         -0.08886  -0.02010  -0.00670  -0.00213  -0.00000
  33        4PX         0.01384   0.00024   0.01047   0.01311  -0.00000
  34        4PY         0.00461   0.01047   0.00933   0.00437  -0.00000
  35        4PZ        -0.01914   0.00788   0.00263  -0.01466   0.00000
  36 4   Cl 1S         -0.00020  -0.00021  -0.00007  -0.00003   0.00000
  37        2S          0.00481   0.00463   0.00154   0.00040   0.00000
  38        2PX        -0.00060   0.00001  -0.00017  -0.00034   0.00000
  39        2PY        -0.00020  -0.00017  -0.00005  -0.00011   0.00000
  40        2PZ         0.00011  -0.00011  -0.00004   0.00010   0.00000
  41        3S         -0.00862  -0.00778  -0.00259   0.00215   0.00000
  42        3PX         0.02110   0.00125   0.00713   0.00898  -0.00000
  43        3PY         0.00703   0.00713   0.00264   0.00299  -0.00000
  44        3PZ        -0.00310   0.00511   0.00170  -0.00129   0.00000
  45        4S         -0.08886  -0.02010  -0.00670  -0.00213  -0.00000
  46        4PX         0.01384   0.00024   0.01047   0.01311  -0.00000
  47        4PY         0.00461   0.01047   0.00933   0.00437  -0.00000
  48        4PZ        -0.01914   0.00788   0.00263  -0.01466   0.00000
                          11        12        13        14        15
  11        2S          2.38415
  12        2PX         0.00000   2.05125
  13        2PY         0.00000   0.00000   2.02257
  14        2PZ         0.00000   0.00000   0.00000   2.04632
  15        3S         -0.11643   0.00000   0.00000   0.00000   0.71588
  16        3PX         0.00000  -0.05630  -0.00000   0.00000   0.00000
  17        3PY         0.00000   0.00000  -0.03587   0.00000   0.00000
  18        3PZ         0.00000   0.00000   0.00000  -0.05266   0.00000
  19        4S         -0.17107   0.00000   0.00000   0.00000   0.51355
  20        4PX         0.00000  -0.02400   0.00000   0.00000   0.00000
  21        4PY         0.00000   0.00000  -0.01939   0.00000   0.00000
  22        4PZ         0.00000   0.00000   0.00000  -0.02366   0.00000
  23 3   Cl 1S          0.00000   0.00000   0.00000   0.00000   0.00000
  24        2S          0.00000   0.00000   0.00000   0.00000  -0.00000
  25        2PX         0.00000   0.00000   0.00000   0.00000  -0.00000
  26        2PY         0.00000   0.00000   0.00000   0.00000   0.00000
  27        2PZ         0.00000   0.00000   0.00000   0.00000   0.00000
  28        3S         -0.00000   0.00000   0.00000   0.00000  -0.00000
  29        3PX         0.00000   0.00000   0.00000   0.00000   0.00000
  30        3PY         0.00000   0.00000   0.00000   0.00000  -0.00001
  31        3PZ         0.00000   0.00000   0.00000   0.00000   0.00000
  32        4S          0.00000   0.00001   0.00002   0.00000  -0.00010
  33        4PX         0.00001   0.00001   0.00004   0.00000  -0.00004
  34        4PY         0.00007   0.00004   0.00010   0.00000  -0.00063
  35        4PZ         0.00000   0.00000   0.00000   0.00000   0.00000
  36 4   Cl 1S          0.00000   0.00000   0.00000   0.00000   0.00000
  37        2S          0.00000   0.00000   0.00000   0.00000  -0.00000
  38        2PX         0.00000   0.00000   0.00000   0.00000  -0.00000
  39        2PY         0.00000   0.00000   0.00000   0.00000   0.00000
  40        2PZ         0.00000   0.00000   0.00000   0.00000   0.00000
  41        3S         -0.00000   0.00000   0.00000   0.00000  -0.00000
  42        3PX         0.00000   0.00000   0.00000   0.00000   0.00000
  43        3PY         0.00000   0.00000   0.00000   0.00000  -0.00001
  44        3PZ         0.00000   0.00000   0.00000   0.00000   0.00000
  45        4S          0.00000   0.00001   0.00002   0.00000  -0.00010
  46        4PX         0.00001   0.00001   0.00004   0.00000  -0.00004
  47        4PY         0.00007   0.00004   0.00010   0.00000  -0.00063
  48        4PZ         0.00000   0.00000   0.00000   0.00000   0.00000
                          16        17        18        19        20
  16        3PX         0.72433
  17        3PY         0.00000   0.59484
  18        3PZ         0.00000   0.00000   0.69932
  19        4S          0.00000   0.00000   0.00000   0.69721
  20        4PX         0.39100   0.00000   0.00000   0.00000   0.56385
  21        4PY         0.00000   0.28226   0.00000   0.00000   0.00000
  22        4PZ         0.00000   0.00000   0.38148   0.00000   0.00000
  23 3   Cl 1S         -0.00000  -0.00000   0.00000  -0.00000  -0.00000
  24        2S          0.00000   0.00000   0.00000   0.00000   0.00003
  25        2PX         0.00000   0.00000   0.00000   0.00001   0.00001
  26        2PY         0.00000   0.00000   0.00000   0.00003   0.00004
  27        2PZ         0.00000   0.00000   0.00000   0.00000   0.00000
  28        3S         -0.00000  -0.00000   0.00000  -0.00010  -0.00029
  29        3PX        -0.00000  -0.00002   0.00000  -0.00035  -0.00023
  30        3PY        -0.00003  -0.00006   0.00000  -0.00146  -0.00162
  31        3PZ         0.00000   0.00000  -0.00000   0.00000   0.00000
  32        4S         -0.00055  -0.00126   0.00000   0.00175  -0.00357
  33        4PX        -0.00033  -0.00190   0.00000  -0.00089  -0.00106
  34        4PY        -0.00180  -0.00406   0.00000  -0.00804  -0.00952
  35        4PZ         0.00000   0.00000   0.00001   0.00000   0.00000
  36 4   Cl 1S         -0.00000  -0.00000   0.00000  -0.00000  -0.00000
  37        2S          0.00000   0.00000   0.00000   0.00000   0.00003
  38        2PX         0.00000   0.00000   0.00000   0.00001   0.00001
  39        2PY         0.00000   0.00000   0.00000   0.00003   0.00004
  40        2PZ         0.00000   0.00000   0.00000   0.00000   0.00000
  41        3S         -0.00000  -0.00000   0.00000  -0.00010  -0.00029
  42        3PX        -0.00000  -0.00002   0.00000  -0.00035  -0.00023
  43        3PY        -0.00003  -0.00006   0.00000  -0.00146  -0.00162
  44        3PZ         0.00000   0.00000  -0.00000   0.00000   0.00000
  45        4S         -0.00055  -0.00126   0.00000   0.00175  -0.00357
  46        4PX        -0.00033  -0.00190   0.00000  -0.00089  -0.00106
  47        4PY        -0.00180  -0.00406   0.00000  -0.00804  -0.00952
  48        4PZ         0.00000   0.00000   0.00001   0.00000   0.00000
                          21        22        23        24        25
  21        4PY         0.38733
  22        4PZ         0.00000   0.56433
  23 3   Cl 1S         -0.00000   0.00000   2.14402
  24        2S          0.00006   0.00000  -0.14855   2.38415
  25        2PX         0.00004   0.00000   0.00000   0.00000   2.02974
  26        2PY         0.00011   0.00000   0.00000   0.00000  -0.00000
  27        2PZ         0.00000   0.00000   0.00000   0.00000   0.00000
  28        3S         -0.00038   0.00000  -0.00192  -0.11643   0.00000
  29        3PX        -0.00172   0.00000   0.00000   0.00000  -0.04097
  30        3PY        -0.00452   0.00000   0.00000   0.00000   0.00000
  31        3PZ         0.00000   0.00001   0.00000   0.00000   0.00000
  32        4S         -0.00536   0.00000   0.00558  -0.17107   0.00000
  33        4PX        -0.00986   0.00000   0.00000   0.00000  -0.02055
  34        4PY        -0.02284   0.00000   0.00000   0.00000  -0.00000
  35        4PZ         0.00000   0.00097   0.00000   0.00000   0.00000
  36 4   Cl 1S         -0.00000   0.00000   0.00000   0.00000   0.00000
  37        2S          0.00006   0.00000   0.00000   0.00000   0.00000
  38        2PX         0.00004   0.00000   0.00000   0.00000   0.00000
  39        2PY         0.00011   0.00000   0.00000   0.00000   0.00000
  40        2PZ         0.00000   0.00000   0.00000   0.00000   0.00000
  41        3S         -0.00038   0.00000   0.00000  -0.00000   0.00000
  42        3PX        -0.00172   0.00000  -0.00000   0.00000   0.00000
  43        3PY        -0.00452   0.00000  -0.00000  -0.00000  -0.00000
  44        3PZ         0.00000   0.00001   0.00000   0.00000   0.00000
  45        4S         -0.00536   0.00000  -0.00000   0.00000   0.00003
  46        4PX        -0.00986   0.00000  -0.00000   0.00009   0.00019
  47        4PY        -0.02284   0.00000  -0.00000  -0.00000   0.00000
  48        4PZ         0.00000   0.00097   0.00000   0.00000   0.00000
                          26        27        28        29        30
  26        2PY         2.04408
  27        2PZ         0.00000   2.04632
  28        3S          0.00000   0.00000   0.71588
  29        3PX        -0.00000   0.00000   0.00000   0.62721
  30        3PY        -0.05119   0.00000   0.00000   0.00000   0.69196
  31        3PZ         0.00000  -0.05266   0.00000   0.00000   0.00000
  32        4S          0.00000   0.00000   0.51355   0.00000   0.00000
  33        4PX         0.00000   0.00000   0.00000   0.30944   0.00000
  34        4PY        -0.02285   0.00000   0.00000  -0.00000   0.36382
  35        4PZ         0.00000  -0.02366   0.00000   0.00000   0.00000
  36 4   Cl 1S          0.00000   0.00000   0.00000  -0.00000  -0.00000
  37        2S          0.00000   0.00000  -0.00000   0.00000  -0.00000
  38        2PX         0.00000   0.00000   0.00000   0.00000  -0.00000
  39        2PY         0.00000   0.00000   0.00000   0.00000   0.00000
  40        2PZ         0.00000   0.00000   0.00000   0.00000   0.00000
  41        3S          0.00000   0.00000  -0.00000  -0.00001  -0.00000
  42        3PX         0.00000   0.00000  -0.00001  -0.00011  -0.00000
  43        3PY         0.00000   0.00000   0.00000   0.00000  -0.00000
  44        3PZ         0.00000   0.00000   0.00000   0.00000   0.00000
  45        4S          0.00000   0.00000  -0.00010  -0.00181  -0.00000
  46        4PX         0.00000   0.00000  -0.00067  -0.00806  -0.00000
  47        4PY         0.00000   0.00000   0.00000  -0.00000  -0.00003
  48        4PZ         0.00000   0.00000   0.00000   0.00000   0.00000
                          31        32        33        34        35
  31        3PZ         0.69932
  32        4S          0.00000   0.69721
  33        4PX         0.00000   0.00000   0.43146
  34        4PY         0.00000   0.00000  -0.00000   0.51972
  35        4PZ         0.38148   0.00000   0.00000   0.00000   0.56433
  36 4   Cl 1S          0.00000  -0.00000  -0.00000  -0.00000   0.00000
  37        2S          0.00000   0.00000   0.00009  -0.00000   0.00000
  38        2PX         0.00000   0.00003   0.00019   0.00000   0.00000
  39        2PY         0.00000   0.00000   0.00000   0.00000   0.00000
  40        2PZ         0.00000   0.00000   0.00000   0.00000   0.00000
  41        3S          0.00000  -0.00010  -0.00067   0.00000   0.00000
  42        3PX         0.00000  -0.00181  -0.00806  -0.00000   0.00000
  43        3PY         0.00000  -0.00000  -0.00000  -0.00003   0.00000
  44        3PZ        -0.00000   0.00000   0.00000   0.00000   0.00001
  45        4S          0.00000   0.00175  -0.00894  -0.00000   0.00000
  46        4PX         0.00000  -0.00894  -0.04341   0.00000   0.00000
  47        4PY         0.00000   0.00000  -0.00000   0.00014   0.00000
  48        4PZ         0.00001   0.00000   0.00000   0.00000   0.00097
                          36        37        38        39        40
  36 4   Cl 1S          2.14402
  37        2S         -0.14855   2.38415
  38        2PX         0.00000   0.00000   2.02974
  39        2PY         0.00000   0.00000  -0.00000   2.04408
  40        2PZ         0.00000   0.00000   0.00000   0.00000   2.04632
  41        3S         -0.00192  -0.11643   0.00000   0.00000   0.00000
  42        3PX         0.00000   0.00000  -0.04097  -0.00000   0.00000
  43        3PY         0.00000   0.00000   0.00000  -0.05119   0.00000
  44        3PZ         0.00000   0.00000   0.00000   0.00000  -0.05266
  45        4S          0.00558  -0.17107   0.00000   0.00000   0.00000
  46        4PX         0.00000   0.00000  -0.02055   0.00000   0.00000
  47        4PY         0.00000   0.00000  -0.00000  -0.02285   0.00000
  48        4PZ         0.00000   0.00000   0.00000   0.00000  -0.02366
                          41        42        43        44        45
  41        3S          0.71588
  42        3PX         0.00000   0.62721
  43        3PY         0.00000   0.00000   0.69196
  44        3PZ         0.00000   0.00000   0.00000   0.69932
  45        4S          0.51355   0.00000   0.00000   0.00000   0.69721
  46        4PX         0.00000   0.30944   0.00000   0.00000   0.00000
  47        4PY         0.00000  -0.00000   0.36382   0.00000   0.00000
  48        4PZ         0.00000   0.00000   0.00000   0.38148   0.00000
                          46        47        48
  46        4PX         0.43146
  47        4PY        -0.00000   0.51972
  48        4PZ         0.00000   0.00000   0.56433
     Gross orbital populations:
                         Total     Alpha     Beta      Spin
   1 1   B  1S          1.98889   0.99598   0.99291   0.00306
   2        2S          0.36149   0.22064   0.14084   0.07980
   3        2PX         0.31919   0.16871   0.15048   0.01823
   4        2PY         0.31919   0.16871   0.15048   0.01823
   5        2PZ         0.40954   0.36394   0.04560   0.31834
   6        3S          0.81653   0.56436   0.25218   0.31218
   7        3PX         0.10601   0.06058   0.04543   0.01516
   8        3PY         0.10601   0.06058   0.04543   0.01516
   9        3PZ         0.39995   0.32707   0.07288   0.25420
  10 2   Cl 1S          1.99861   0.99931   0.99930   0.00001
  11        2S          1.95926   0.97972   0.97954   0.00018
  12        2PX         1.97080   0.98540   0.98540  -0.00000
  13        2PY         1.96535   0.98261   0.98274  -0.00014
  14        2PZ         1.96993   0.98536   0.98457   0.00080
  15        3S          1.09888   0.55116   0.54773   0.00343
  16        3PX         1.06491   0.53268   0.53222   0.00046
  17        3PY         0.91842   0.45701   0.46142  -0.00441
  18        3PZ         1.03671   0.53212   0.50459   0.02752
  19        4S          0.91048   0.45144   0.45904  -0.00760
  20        4PX         0.92411   0.46022   0.46389  -0.00367
  21        4PY         0.66728   0.32249   0.34478  -0.02229
  22        4PZ         0.90633   0.45030   0.45603  -0.00573
  23 3   Cl 1S          1.99861   0.99931   0.99930   0.00001
  24        2S          1.95926   0.97972   0.97954   0.00018
  25        2PX         1.96671   0.98330   0.98341  -0.00010
  26        2PY         1.96943   0.98470   0.98473  -0.00003
  27        2PZ         1.96993   0.98536   0.98457   0.00080
  28        3S          1.09888   0.55116   0.54773   0.00343
  29        3PX         0.95504   0.47593   0.47912  -0.00319
  30        3PY         1.02829   0.51376   0.51452  -0.00076
  31        3PZ         1.03671   0.53212   0.50459   0.02752
  32        4S          0.91048   0.45144   0.45904  -0.00760
  33        4PX         0.73149   0.35693   0.37456  -0.01763
  34        4PY         0.85990   0.42579   0.43411  -0.00833
  35        4PZ         0.90633   0.45030   0.45603  -0.00573
  36 4   Cl 1S          1.99861   0.99931   0.99930   0.00001
  37        2S          1.95926   0.97972   0.97954   0.00018
  38        2PX         1.96671   0.98330   0.98341  -0.00010
  39        2PY         1.96943   0.98470   0.98473  -0.00003
  40        2PZ         1.96993   0.98536   0.98457   0.00080
  41        3S          1.09888   0.55116   0.54773   0.00343
  42        3PX         0.95504   0.47593   0.47912  -0.00319
  43        3PY         1.02829   0.51376   0.51452  -0.00076
  44        3PZ         1.03671   0.53212   0.50459   0.02752
  45        4S          0.91048   0.45144   0.45904  -0.00760
  46        4PX         0.73149   0.35693   0.37456  -0.01763
  47        4PY         0.85990   0.42579   0.43411  -0.00833
  48        4PZ         0.90633   0.45030   0.45603  -0.00573
          Condensed to atoms (all electrons):
               1          2          3          4
     1  B    4.508321   0.106158   0.106158   0.106158
     2  Cl   0.106158  17.443418  -0.079254  -0.079254
     3  Cl   0.106158  -0.079254  17.443418  -0.079254
     4  Cl   0.106158  -0.079254  -0.079254  17.443418
          Atomic-Atomic Spin Densities.
               1          2          3          4
     1  B    1.404586  -0.123413  -0.123413  -0.123413
     2  Cl  -0.123413   0.094604   0.008680   0.008680
     3  Cl  -0.123413   0.008680   0.094604   0.008680
     4  Cl  -0.123413   0.008680   0.008680   0.094604
 Mulliken charges and spin densities:
               1          2
     1  B    0.173204   1.034346
     2  Cl  -0.391068  -0.011449
     3  Cl  -0.391068  -0.011449
     4  Cl  -0.391068  -0.011449
 Sum of Mulliken charges =  -1.00000   1.00000
 Mulliken charges and spin densities with hydrogens summed into heavy atoms:
               1          2
     1  B    0.173204   1.034346
     2  Cl  -0.391068  -0.011449
     3  Cl  -0.391068  -0.011449
     4  Cl  -0.391068  -0.011449
 Electronic spatial extent (au):  <R**2>=            721.4124
 Charge=             -1.0000 electrons
 Dipole moment (field-independent basis, Debye):
    X=              0.0000    Y=              0.0000    Z=              0.2140  Tot=              0.2140
 Quadrupole moment (field-independent basis, Debye-Ang):
   XX=            -58.6018   YY=            -58.6018   ZZ=            -49.1412
   XY=             -0.0000   XZ=              0.0000   YZ=             -0.0000
 Traceless Quadrupole moment (field-independent basis, Debye-Ang):
   XX=             -3.1535   YY=             -3.1535   ZZ=              6.3071
   XY=             -0.0000   XZ=              0.0000   YZ=             -0.0000
 Octapole moment (field-independent basis, Debye-Ang**2):
  XXX=              0.0000  YYY=             -9.4802  ZZZ=             -7.2048  XYY=             -0.0000
  XXY=              9.4802  XXZ=             -1.3951  XZZ=              0.0000  YZZ=              0.0000
  YYZ=             -1.3951  XYZ=             -0.0000
 Hexadecapole moment (field-independent basis, Debye-Ang**3):
 XXXX=           -481.5408 YYYY=           -481.5408 ZZZZ=            -77.5948 XXXY=              0.0000
 XXXZ=              0.0000 YYYX=              0.0000 YYYZ=             -1.1704 ZZZX=             -0.0000
 ZZZY=             -0.0000 XXYY=           -160.5136 XXZZ=            -88.8623 YYZZ=            -88.8623
 XXYZ=              1.1704 YYXZ=             -0.0000 ZZXY=              0.0000
 N-N= 2.176432848187D+02 E-N=-3.772824706585D+03  KE= 1.395633246171D+03
 Symmetry A'   KE= 8.923074514636D+02
 Symmetry A"   KE= 5.033257947075D+02
 Symmetry A'   SP= 1.000000000000D+00
 Symmetry A"   SP= 4.003495126560D-14
 Orbital energies and kinetic energies (alpha):
                                 1                 2
   1         (E)--O         -103.906602        136.078149
   2         (E)--O         -103.906602        136.078149
   3         (A1)--O        -103.906313        136.085321
   4         (E)--O          -10.301124         22.343966
   5         (E)--O          -10.301124         22.343966
   6         (A1)--O         -10.300215         22.366749
   7         (E)--O           -7.764572         20.336272
   8         (E)--O           -7.764572         20.336272
   9         (A1)--O          -7.764393         20.346093
  10         (E)--O           -7.761406         20.361442
  11         (E)--O           -7.761406         20.361442
  12         (A1)--O          -7.761243         20.369336
  13         (A2)--O          -7.760975         20.357746
  14         (E)--O           -7.760715         20.370409
  15         (E)--O           -7.760715         20.370409
  16         (A1)--O          -7.515939         10.816208
  17         (A1)--O          -0.943587          2.588793
  18         (E)--O           -0.889774          2.955077
  19         (E)--O           -0.889774          2.955077
  20         (A1)--O          -0.495169          1.959362
  21         (E)--O           -0.361476          1.944210
  22         (E)--O           -0.361476          1.944210
  23         (A1)--O          -0.351625          1.662169
  24         (E)--O           -0.289320          2.181672
  25         (E)--O           -0.289320          2.181672
  26         (E)--O           -0.258939          2.338066
  27         (E)--O           -0.258939          2.338066
  28         (A2)--O          -0.250155          2.397237
  29         (A1)--O          -0.142744          1.713275
  30         (A1)--V           0.388256          2.129397
  31         (E)--V            0.396498          1.451623
  32         (E)--V            0.396498          1.451623
  33         (A1)--V           0.779661          1.690059
  34         (E)--V            0.818388          2.013716
  35         (E)--V            0.818388          2.013716
  36         (A1)--V           0.856143          2.929845
  37         (E)--V            0.930460          3.143507
  38         (E)--V            0.930460          3.143507
  39         (A1)--V           0.957393          3.630660
  40         (E)--V            0.959336          3.597911
  41         (E)--V            0.959336          3.597911
  42         (A1)--V           1.019391          3.392707
  43         (E)--V            1.051505          3.468256
  44         (E)--V            1.051505          3.468256
  45         (A2)--V           1.096000          3.601385
  46         (E)--V            1.241898          3.719012
  47         (E)--V            1.241898          3.719012
  48         (A1)--V           1.438983          2.061202
 Orbital energies and kinetic energies (beta):
                                 1                 2
   1         (E)--O         -103.905974        136.078408
   2         (E)--O         -103.905974        136.078408
   3         (A1)--O        -103.905685        136.085580
   4         (E)--O          -10.300368         22.344333
   5         (E)--O          -10.300368         22.344333
   6         (A1)--O         -10.299456         22.367193
   7         (E)--O           -7.763809         20.334707
   8         (E)--O           -7.763809         20.334707
   9         (A1)--O          -7.763581         20.347167
  10         (A2)--O          -7.760628         20.358108
  11         (E)--O           -7.760383         20.369243
  12         (E)--O           -7.760383         20.369243
  13         (E)--O           -7.759534         20.363521
  14         (E)--O           -7.759534         20.363521
  15         (A1)--O          -7.759435         20.367276
  16         (A1)--O          -7.493040         10.826480
  17         (A1)--O          -0.932945          2.626265
  18         (E)--O           -0.883819          2.956077
  19         (E)--O           -0.883819          2.956077
  20         (A1)--O          -0.456537          2.018195
  21         (E)--O           -0.350945          1.960813
  22         (E)--O           -0.350945          1.960813
  23         (A1)--O          -0.309890          1.942459
  24         (E)--O           -0.279295          2.174087
  25         (E)--O           -0.279295          2.174087
  26         (E)--O           -0.258021          2.329078
  27         (E)--O           -0.258021          2.329078
  28         (A2)--O          -0.249101          2.393174
  29         (A1)--V           0.298789          1.169390
  30         (A1)--V           0.399022          2.050086
  31         (E)--V            0.444100          1.393502
  32         (E)--V            0.444100          1.393502
  33         (E)--V            0.836719          2.078916
  34         (E)--V            0.836719          2.078916
  35         (A1)--V           0.857500          2.837135
  36         (A1)--V           0.891139          2.055512
  37         (E)--V            0.935003          3.107601
  38         (E)--V            0.935003          3.107601
  39         (A1)--V           0.958012          3.620753
  40         (E)--V            0.960547          3.596245
  41         (E)--V            0.960547          3.596245
  42         (A1)--V           1.032762          3.374938
  43         (E)--V            1.057183          3.491827
  44         (E)--V            1.057183          3.491827
  45         (A2)--V           1.096728          3.605086
  46         (E)--V            1.244874          3.724930
  47         (E)--V            1.244874          3.724930
  48         (A1)--V           1.459436          2.052746
 Total kinetic energy from orbitals= 1.395633246171D+03
                          Isotropic Fermi Contact Couplings
        Atom                 a.u.       MegaHertz       Gauss      10(-4) cm-1
     1  B(11)              0.39436     565.66149     201.84209     188.68436
     2  Cl(35)             0.04712      20.66065       7.37224       6.89165
     3  Cl(35)             0.04712      20.66065       7.37224       6.89165
     4  Cl(35)             0.04712      20.66065       7.37224       6.89165
 --------------------------------------------------------
       Center         ----  Spin Dipole Couplings  ----
                      3XX-RR        3YY-RR        3ZZ-RR
 --------------------------------------------------------
     1   Atom       -0.173809     -0.173809      0.347618
     2   Atom       -0.134380     -0.182961      0.317341
     3   Atom       -0.170816     -0.146525      0.317341
     4   Atom       -0.170816     -0.146525      0.317341
 --------------------------------------------------------
                        XY            XZ            YZ
 --------------------------------------------------------
     1   Atom        0.000000      0.000000     -0.000000
     2   Atom        0.000000     -0.000000     -0.176685
     3   Atom        0.021036     -0.153013      0.088342
     4   Atom       -0.021036      0.153013      0.088342
 --------------------------------------------------------


 ---------------------------------------------------------------------------------
              Anisotropic Spin Dipole Couplings in Principal Axis System
 ---------------------------------------------------------------------------------

       Atom             a.u.   MegaHertz   Gauss  10(-4) cm-1        Axes

              Baa    -0.1738   -29.759   -10.619    -9.926 -0.0906  0.9959 -0.0000
     1 B(11)  Bbb    -0.1738   -29.759   -10.619    -9.926  0.9959  0.0906  0.0000
              Bcc     0.3476    59.517    21.237    19.853  0.0000  0.0000  1.0000
 
              Baa    -0.2391   -12.512    -4.465    -4.174  0.0000  0.9531  0.3027
     2 Cl(35) Bbb    -0.1344    -7.033    -2.510    -2.346  1.0000 -0.0000  0.0000
              Bcc     0.3734    19.545     6.974     6.520 -0.0000 -0.3027  0.9531
 
              Baa    -0.2391   -12.512    -4.465    -4.174  0.8254 -0.4766  0.3027
     3 Cl(35) Bbb    -0.1344    -7.033    -2.510    -2.346  0.5000  0.8660 -0.0000
              Bcc     0.3734    19.545     6.974     6.520 -0.2621  0.1513  0.9531
 
              Baa    -0.2391   -12.512    -4.465    -4.174  0.8254  0.4766 -0.3027
     4 Cl(35) Bbb    -0.1344    -7.033    -2.510    -2.346 -0.5000  0.8660  0.0000
              Bcc     0.3734    19.545     6.974     6.520  0.2621  0.1513  0.9531
 

 ---------------------------------------------------------------------------------

 1\1\GINC-IISERK51\SP\UHF\3-21G\B1Cl3(1-,2)\GAUSSIAN\17-Jul-2025\0\\# h
 f/3-21g pop=full geom=connectivity\\BCl3 pyramid opt\\-1,2\B,0,0.,0.,0
 .580095\Cl,0,0.,1.801614,-0.056872\Cl,0,1.560244,-0.900807,-0.056872\C
 l,0,-1.560244,-0.900807,-0.056872\\Version=EM64L-G16RevB.01\State=2-A1
 \HF=-1396.569849\S2=0.753556\S2-1=0.\S2A=0.75001\RMSD=3.234e-09\Dipole
 =0.,0.,0.0841897\Quadrupole=-2.3445839,-2.3445839,4.6891677,0.,0.,0.\P
 G=C03V [C3(B1),3SGV(Cl1)]\\@


 SOME PEOPLE TRY TO PULL THE WOOL OVER YOUR EYES
 USING THE WRONG YARN.
 Job cpu time:       0 days  0 hours  0 minutes  0.5 seconds.
 Elapsed time:       0 days  0 hours  0 minutes  0.5 seconds.
 File lengths (MBytes):  RWF=      6 Int=      0 D2E=      0 Chk=      1 Scr=      1
 Normal termination of Gaussian 16 at Thu Jul 17 18:03:48 2025.
