 Entering Gaussian System, Link 0=g16
 Input=/home/gaussian/Summer_Internship/Acid_Base_adduct/Acid/BF3/BF3_ion_pyramid_sp.com
 Output=/home/gaussian/Summer_Internship/Acid_Base_adduct/Acid/BF3/BF3_ion_pyramid_sp.log
 Initial command:
 /usr/local/g16/l1.exe "/home/gaussian/tmp/Gau-218635.inp" -scrdir="/home/gaussian/tmp/"
 Entering Link 1 = /usr/local/g16/l1.exe PID=    218638.
  
 Copyright (c) 1988-2017, Gaussian, Inc.  All Rights Reserved.
  
 This is part of the Gaussian(R) 16 program.  It is based on
 the Gaussian(R) 09 system (copyright 2009, Gaussian, Inc.),
 the Gaussian(R) 03 system (copyright 2003, Gaussian, Inc.),
 the Gaussian(R) 98 system (copyright 1998, Gaussian, Inc.),
 the Gaussian(R) 94 system (copyright 1995, Gaussian, Inc.),
 the Gaussian 92(TM) system (copyright 1992, Gaussian, Inc.),
 the Gaussian 90(TM) system (copyright 1990, Gaussian, Inc.),
 the Gaussian 88(TM) system (copyright 1988, Gaussian, Inc.),
 the Gaussian 86(TM) system (copyright 1986, Carnegie Mellon
 University), and the Gaussian 82(TM) system (copyright 1983,
 Carnegie Mellon University). Gaussian is a federally registered
 trademark of Gaussian, Inc.
  
 This software contains proprietary and confidential information,
 including trade secrets, belonging to Gaussian, Inc.
  
 This software is provided under written license and may be
 used, copied, transmitted, or stored only in accord with that
 written license.
  
 The following legend is applicable only to US Government
 contracts under FAR:
  
                    RESTRICTED RIGHTS LEGEND
  
 Use, reproduction and disclosure by the US Government is
 subject to restrictions as set forth in subparagraphs (a)
 and (c) of the Commercial Computer Software - Restricted
 Rights clause in FAR 52.227-19.
  
 Gaussian, Inc.
 340 Quinnipiac St., Bldg. 40, Wallingford CT 06492
  
  
 ---------------------------------------------------------------
 Warning -- This program may not be used in any manner that
 competes with the business of Gaussian, Inc. or will provide
 assistance to any competitor of Gaussian, Inc.  The licensee
 of this program is prohibited from giving any competitor of
 Gaussian, Inc. access to this program.  By using this program,
 the user acknowledges that Gaussian, Inc. is engaged in the
 business of creating and licensing software in the field of
 computational chemistry and represents and warrants to the
 licensee that it is not a competitor of Gaussian, Inc. and that
 it will not use this program in any manner prohibited above.
 ---------------------------------------------------------------
  

 Cite this work as:
 Gaussian 16, Revision B.01,
 M. J. Frisch, G. W. Trucks, H. B. Schlegel, G. E. Scuseria, 
 M. A. Robb, J. R. Cheeseman, G. Scalmani, V. Barone, 
 G. A. Petersson, H. Nakatsuji, X. Li, M. Caricato, A. V. Marenich, 
 J. Bloino, B. G. Janesko, R. Gomperts, B. Mennucci, H. P. Hratchian, 
 J. V. Ortiz, A. F. Izmaylov, J. L. Sonnenberg, D. Williams-Young, 
 F. Ding, F. Lipparini, F. Egidi, J. Goings, B. Peng, A. Petrone, 
 T. Henderson, D. Ranasinghe, V. G. Zakrzewski, J. Gao, N. Rega, 
 G. Zheng, W. Liang, M. Hada, M. Ehara, K. Toyota, R. Fukuda, 
 J. Hasegawa, M. Ishida, T. Nakajima, Y. Honda, O. Kitao, H. Nakai, 
 T. Vreven, K. Throssell, J. A. Montgomery, Jr., J. E. Peralta, 
 F. Ogliaro, M. J. Bearpark, J. J. Heyd, E. N. Brothers, K. N. Kudin, 
 V. N. Staroverov, T. A. Keith, R. Kobayashi, J. Normand, 
 K. Raghavachari, A. P. Rendell, J. C. Burant, S. S. Iyengar, 
 J. Tomasi, M. Cossi, J. M. Millam, M. Klene, C. Adamo, R. Cammi, 
 J. W. Ochterski, R. L. Martin, K. Morokuma, O. Farkas, 
 J. B. Foresman, and D. J. Fox, Gaussian, Inc., Wallingford CT, 2016.
 
 ******************************************
 Gaussian 16:  EM64L-G16RevB.01 20-Dec-2017
                17-Jul-2025 
 ******************************************
 %chk=BF3_ion_pyramid_sp.chk
 -------------------------------------
 # hf/3-21g pop=full geom=connectivity
 -------------------------------------
 1/38=1,57=2,172=1/1;
 2/12=2,17=6,18=5,40=1/2;
 3/5=5,11=9,25=1,30=1/1,2,3;
 4//1;
 5/5=2,38=5/2;
 6/7=3,28=1/1;
 99/5=1,9=1/99;
 --------------
 BF3 pyramid sp
 --------------
 Symbolic Z-matrix:
 Charge = -1 Multiplicity = 2
 B                     0.        0.        0.39448 
 F                     0.        1.32238  -0.07305 
 F                    -1.14522  -0.66119  -0.07305 
 F                     1.14522  -0.66119  -0.07305 
 
                          Input orientation:                          
 ---------------------------------------------------------------------
 Center     Atomic      Atomic             Coordinates (Angstroms)
 Number     Number       Type             X           Y           Z
 ---------------------------------------------------------------------
      1          5           0        0.000000    0.000000    0.394480
      2          9           0        0.000000    1.322380   -0.073052
      3          9           0       -1.145215   -0.661190   -0.073052
      4          9           0        1.145215   -0.661190   -0.073052
 ---------------------------------------------------------------------
                    Distance matrix (angstroms):
                    1          2          3          4
     1  B    0.000000
     2  F    1.402596   0.000000
     3  F    1.402596   2.290430   0.000000
     4  F    1.402596   2.290430   2.290430   0.000000
 Stoichiometry    BF3(1-,2)
 Framework group  C3V[C3(B),3SGV(F)]
 Deg. of freedom     2
 Full point group                 C3V     NOp   6
 Largest Abelian subgroup         CS      NOp   2
 Largest concise Abelian subgroup CS      NOp   2
                         Standard orientation:                         
 ---------------------------------------------------------------------
 Center     Atomic      Atomic             Coordinates (Angstroms)
 Number     Number       Type             X           Y           Z
 ---------------------------------------------------------------------
      1          5           0        0.000000    0.000000    0.394480
      2          9           0        0.000000    1.322380   -0.073052
      3          9           0       -1.145215   -0.661190   -0.073052
      4          9           0        1.145215   -0.661190   -0.073052
 ---------------------------------------------------------------------
 Rotational constants (GHZ):           9.7468796           9.7468796           5.0706811
 Standard basis: 3-21G (6D, 7F)
 There are    23 symmetry adapted cartesian basis functions of A'  symmetry.
 There are    13 symmetry adapted cartesian basis functions of A"  symmetry.
 There are    23 symmetry adapted basis functions of A'  symmetry.
 There are    13 symmetry adapted basis functions of A"  symmetry.
    36 basis functions,    60 primitive gaussians,    36 cartesian basis functions
    17 alpha electrons       16 beta electrons
       nuclear repulsion energy       107.0757036189 Hartrees.
 NAtoms=    4 NActive=    4 NUniq=    2 SFac= 4.00D+00 NAtFMM=   60 NAOKFM=F Big=F
 Integral buffers will be    131072 words long.
 Raffenetti 2 integral format.
 Two-electron integral symmetry is turned on.
 One-electron integrals computed using PRISM.
 NBasis=    36 RedAO= T EigKep=  8.40D-02  NBF=    23    13
 NBsUse=    36 1.00D-06 EigRej= -1.00D+00 NBFU=    23    13
 ExpMin= 1.24D-01 ExpMax= 4.14D+02 ExpMxC= 4.14D+02 IAcc=3 IRadAn=         5 AccDes= 0.00D+00
 Harris functional with IExCor=  205 and IRadAn=       5 diagonalized for initial guess.
 HarFok:  IExCor=  205 AccDes= 0.00D+00 IRadAn=         5 IDoV= 1 UseB2=F ITyADJ=14
 ICtDFT=  3500011 ScaDFX=  1.000000  1.000000  1.000000  1.000000
 FoFCou: FMM=F IPFlag=           0 FMFlag=      100000 FMFlg1=           0
         NFxFlg=           0 DoJE=T BraDBF=F KetDBF=T FulRan=T
         wScrn=  0.000000 ICntrl=       500 IOpCl=  0 I1Cent=   200000004 NGrid=           0
         NMat0=    1 NMatS0=      1 NMatT0=    0 NMatD0=    1 NMtDS0=    0 NMtDT0=    0
 Petite list used in FoFCou.
 Initial guess orbital symmetries:
 Alpha Orbitals:
       Occupied  (A1) (E) (E) (A1) (A1) (E) (E) (A1) (E) (E) (A1)
                 (E) (E) (E) (E) (A2) (A1)
       Virtual   (E) (E) (A1) (A1) (E) (E) (A1) (E) (E) (A2) (E)
                 (E) (A1) (A1) (E) (E) (E) (E) (A1)
 Beta  Orbitals:
       Occupied  (A1) (E) (E) (A1) (A1) (E) (E) (A1) (E) (E) (A1)
                 (E) (E) (E) (E) (A2)
       Virtual   (A1) (E) (E) (A1) (A1) (E) (E) (A1) (E) (E) (A2)
                 (E) (E) (A1) (A1) (E) (E) (E) (E) (A1)
 The electronic state of the initial guess is 2-A1.
 Initial guess <Sx>= 0.0000 <Sy>= 0.0000 <Sz>= 0.5000 <S**2>= 0.7500 S= 0.5000
 Keep R1 and R2 ints in memory in symmetry-blocked form, NReq=1032555.
 Requested convergence on RMS density matrix=1.00D-08 within 128 cycles.
 Requested convergence on MAX density matrix=1.00D-06.
 Requested convergence on             energy=1.00D-06.
 No special actions if energy rises.
 SCF Done:  E(UHF) =  -321.401253552     A.U. after   11 cycles
            NFock= 11  Conv=0.49D-08     -V/T= 2.0026
 <Sx>= 0.0000 <Sy>= 0.0000 <Sz>= 0.5000 <S**2>= 0.7516 S= 0.5008
 <L.S>= 0.000000000000E+00
 Annihilation of the first spin contaminant:
 S**2 before annihilation     0.7516,   after     0.7500

 **********************************************************************

            Population analysis using the SCF Density.

 **********************************************************************

 Orbital symmetries:
 Alpha Orbitals:
       Occupied  (A1) (E) (E) (A1) (A1) (E) (E) (A1) (E) (E) (A1)
                 (E) (E) (E) (E) (A2) (A1)
       Virtual   (E) (E) (A1) (A1) (E) (E) (A1) (E) (E) (A1) (A2)
                 (E) (E) (A1) (E) (E) (E) (E) (A1)
 Beta  Orbitals:
       Occupied  (A1) (E) (E) (A1) (A1) (E) (E) (A1) (E) (E) (A1)
                 (E) (E) (E) (E) (A2)
       Virtual   (A1) (E) (E) (A1) (A1) (E) (E) (A1) (E) (E) (A2)
                 (A1) (E) (E) (A1) (E) (E) (E) (E) (A1)
 The electronic state is 2-A1.
 Alpha  occ. eigenvalues --  -25.85897 -25.85810 -25.85810  -7.38561  -1.32573
 Alpha  occ. eigenvalues --   -1.27576  -1.27576  -0.51307  -0.43781  -0.43781
 Alpha  occ. eigenvalues --   -0.42805  -0.36115  -0.36115  -0.32724  -0.32724
 Alpha  occ. eigenvalues --   -0.31090  -0.03324
 Alpha virt. eigenvalues --    0.61210   0.61210   0.69023   0.86394   1.03355
 Alpha virt. eigenvalues --    1.03355   1.17095   2.44358   2.44358   2.62060
 Alpha virt. eigenvalues --    2.62247   2.62757   2.62757   2.69845   2.77773
 Alpha virt. eigenvalues --    2.77773   4.11320   4.11320   4.58582
  Beta  occ. eigenvalues --  -25.85493 -25.85407 -25.85407  -7.36693  -1.31365
  Beta  occ. eigenvalues --   -1.26434  -1.26434  -0.49714  -0.42697  -0.42697
  Beta  occ. eigenvalues --   -0.38254  -0.33920  -0.33920  -0.32156  -0.32156
  Beta  occ. eigenvalues --   -0.30961
  Beta virt. eigenvalues --    0.43850   0.65386   0.65386   0.69621   0.96289
  Beta virt. eigenvalues --    1.06068   1.06068   1.19591   2.45432   2.45432
  Beta virt. eigenvalues --    2.62420   2.63308   2.63738   2.63738   2.71215
  Beta virt. eigenvalues --    2.78080   2.78080   4.12366   4.12366   4.59384
     Alpha Molecular Orbital Coefficients:
                           1         2         3         4         5
                        (A1)--O   (E)--O    (E)--O    (A1)--O   (A1)--O
     Eigenvalues --   -25.85897 -25.85810 -25.85810  -7.38561  -1.32573
   1 1   B  1S         -0.00079   0.00000  -0.00000   0.98701  -0.07672
   2        2S          0.00196   0.00000   0.00000   0.09099   0.07377
   3        2PX         0.00000  -0.00340   0.00000   0.00000   0.00000
   4        2PY        -0.00000   0.00000   0.00340  -0.00000   0.00000
   5        2PZ        -0.00290   0.00000  -0.00000  -0.00589  -0.02939
   6        3S          0.01601   0.00000   0.00000  -0.02056   0.04306
   7        3PX         0.00000  -0.00790   0.00000   0.00000   0.00000
   8        3PY        -0.00000   0.00000   0.00790   0.00000   0.00000
   9        3PZ        -0.00631   0.00000  -0.00000  -0.00086   0.00538
  10 2   F  1S          0.56707   0.00000   0.80171   0.00009  -0.13910
  11        2S          0.05701   0.00000   0.07835   0.00251   0.13115
  12        2PX         0.00000  -0.00056   0.00000   0.00000   0.00000
  13        2PY        -0.00164   0.00000  -0.00150  -0.00150  -0.03241
  14        2PZ         0.00008   0.00000   0.00075   0.00038   0.01073
  15        3S         -0.02301   0.00000  -0.02641  -0.00553   0.43815
  16        3PX         0.00000   0.00224   0.00000   0.00000   0.00000
  17        3PY         0.00490   0.00000   0.00301   0.00873  -0.04267
  18        3PZ         0.00017   0.00000  -0.00194  -0.00231   0.01073
  19 3   F  1S          0.56707   0.69430  -0.40086   0.00009  -0.13910
  20        2S          0.05701   0.06785  -0.03917   0.00251   0.13115
  21        2PX         0.00142   0.00099  -0.00089   0.00130   0.02807
  22        2PY         0.00082   0.00089   0.00004   0.00075   0.01621
  23        2PZ         0.00008   0.00065  -0.00038   0.00038   0.01073
  24        3S         -0.02301  -0.02287   0.01320  -0.00553   0.43815
  25        3PX        -0.00425  -0.00169   0.00227  -0.00756   0.03695
  26        3PY        -0.00245  -0.00227  -0.00093  -0.00437   0.02133
  27        3PZ         0.00017  -0.00168   0.00097  -0.00231   0.01073
  28 4   F  1S          0.56707  -0.69430  -0.40086   0.00009  -0.13910
  29        2S          0.05701  -0.06785  -0.03917   0.00251   0.13115
  30        2PX        -0.00142   0.00099   0.00089  -0.00130  -0.02807
  31        2PY         0.00082  -0.00089   0.00004   0.00075   0.01621
  32        2PZ         0.00008  -0.00065  -0.00038   0.00038   0.01073
  33        3S         -0.02301   0.02287   0.01320  -0.00553   0.43815
  34        3PX         0.00425  -0.00169  -0.00227   0.00756  -0.03695
  35        3PY        -0.00245   0.00227  -0.00093  -0.00437   0.02133
  36        3PZ         0.00017   0.00168   0.00097  -0.00231   0.01073
                           6         7         8         9        10
                        (E)--O    (E)--O    (A1)--O   (E)--O    (E)--O
     Eigenvalues --    -1.27576  -1.27576  -0.51307  -0.43781  -0.43781
   1 1   B  1S          0.00000   0.00000   0.14181   0.00000   0.00000
   2        2S          0.00000   0.00000  -0.22362   0.00000   0.00000
   3        2PX         0.00000  -0.07147   0.00000   0.00000   0.22475
   4        2PY         0.07147   0.00000  -0.00000  -0.22475   0.00000
   5        2PZ         0.00000   0.00000   0.04090   0.00000   0.00000
   6        3S         -0.00000   0.00000  -0.13612   0.00000   0.00000
   7        3PX         0.00000  -0.00224   0.00000   0.00000   0.06223
   8        3PY         0.00224   0.00000   0.00000  -0.06223   0.00000
   9        3PZ        -0.00000   0.00000  -0.05586   0.00000   0.00000
  10 2   F  1S         -0.20568   0.00000  -0.04331  -0.03502   0.00000
  11        2S          0.19609   0.00000   0.04433   0.03010   0.00000
  12        2PX         0.00000  -0.00659   0.00000   0.00000   0.22755
  13        2PY        -0.03095   0.00000   0.23564   0.26979   0.00000
  14        2PZ         0.01606   0.00000  -0.07197  -0.16100   0.00000
  15        3S          0.65367   0.00000   0.16796   0.16420   0.00000
  16        3PX         0.00000  -0.00767   0.00000   0.00000   0.25882
  17        3PY        -0.03921   0.00000   0.26964   0.29733   0.00000
  18        3PZ         0.01685   0.00000  -0.07206  -0.17128   0.00000
  19 3   F  1S          0.10284  -0.17812  -0.04331   0.01751  -0.03033
  20        2S         -0.09805   0.16982   0.04433  -0.01505   0.02607
  21        2PX        -0.01626   0.02156  -0.20407   0.21536  -0.14546
  22        2PY        -0.00279   0.01626  -0.11782  -0.10321  -0.21536
  23        2PZ        -0.00803   0.01390  -0.07197   0.08050  -0.13943
  24        3S         -0.32683   0.56609   0.16796  -0.08210   0.14220
  25        3PX        -0.02030   0.02749  -0.23352   0.24082  -0.15829
  26        3PY        -0.00405   0.02030  -0.13482  -0.11979  -0.24082
  27        3PZ        -0.00842   0.01459  -0.07206   0.08564  -0.14833
  28 4   F  1S          0.10284   0.17812  -0.04331   0.01751   0.03033
  29        2S         -0.09805  -0.16982   0.04433  -0.01505  -0.02607
  30        2PX         0.01626   0.02156   0.20407  -0.21536  -0.14546
  31        2PY        -0.00279  -0.01626  -0.11782  -0.10321   0.21536
  32        2PZ        -0.00803  -0.01390  -0.07197   0.08050   0.13943
  33        3S         -0.32683  -0.56609   0.16796  -0.08210  -0.14220
  34        3PX         0.02030   0.02749   0.23352  -0.24082  -0.15829
  35        3PY        -0.00405  -0.02030  -0.13482  -0.11979   0.24082
  36        3PZ        -0.00842  -0.01459  -0.07206   0.08564   0.14833
                          11        12        13        14        15
                        (A1)--O   (E)--O    (E)--O    (E)--O    (E)--O
     Eigenvalues --    -0.42805  -0.36115  -0.36115  -0.32724  -0.32724
   1 1   B  1S         -0.02875   0.00000   0.00000   0.00000  -0.00000
   2        2S          0.04088   0.00000   0.00000   0.00000  -0.00000
   3        2PX         0.00000   0.00000  -0.04153  -0.07899   0.00000
   4        2PY        -0.00000   0.04153   0.00000   0.00000  -0.07899
   5        2PZ         0.17404  -0.00000   0.00000   0.00000   0.00000
   6        3S          0.08068  -0.00000   0.00000   0.00000   0.00000
   7        3PX         0.00000   0.00000   0.04883   0.13499   0.00000
   8        3PY         0.00000  -0.04883   0.00000   0.00000   0.13499
   9        3PZ         0.19379  -0.00000   0.00000   0.00000  -0.00000
  10 2   F  1S         -0.00237   0.00261   0.00000   0.00000  -0.00102
  11        2S         -0.00002  -0.00450   0.00000   0.00000   0.01149
  12        2PX         0.00000   0.00000   0.24211   0.25270   0.00000
  13        2PY         0.09261   0.00311   0.00000   0.00000   0.30741
  14        2PZ         0.25582   0.35743   0.00000   0.00000   0.18038
  15        3S          0.02247   0.00258   0.00000   0.00000  -0.03812
  16        3PX         0.00000   0.00000   0.28792   0.27622   0.00000
  17        3PY         0.09611   0.00665   0.00000   0.00000   0.36059
  18        3PZ         0.27446   0.41814   0.00000   0.00000   0.19707
  19 3   F  1S         -0.00237  -0.00130   0.00226   0.00088   0.00051
  20        2S         -0.00002   0.00225  -0.00390  -0.00995  -0.00575
  21        2PX        -0.08020   0.10618   0.05819   0.29373   0.02369
  22        2PY        -0.04630  -0.18080  -0.10618   0.02369   0.26637
  23        2PZ         0.25582  -0.17871   0.30954  -0.15621  -0.09019
  24        3S          0.02247  -0.00129   0.00223   0.03302   0.01906
  25        3PX        -0.08323   0.12755   0.06699   0.33950   0.03653
  26        3PY        -0.04806  -0.21428  -0.12755   0.03653   0.29732
  27        3PZ         0.27446  -0.20907   0.36212  -0.17066  -0.09853
  28 4   F  1S         -0.00237  -0.00130  -0.00226  -0.00088   0.00051
  29        2S         -0.00002   0.00225   0.00390   0.00995  -0.00575
  30        2PX         0.08020  -0.10618   0.05819   0.29373  -0.02369
  31        2PY        -0.04630  -0.18080   0.10618  -0.02369   0.26637
  32        2PZ         0.25582  -0.17871  -0.30954   0.15621  -0.09019
  33        3S          0.02247  -0.00129  -0.00223  -0.03302   0.01906
  34        3PX         0.08323  -0.12755   0.06699   0.33950  -0.03653
  35        3PY        -0.04806  -0.21428   0.12755  -0.03653   0.29732
  36        3PZ         0.27446  -0.20907  -0.36212   0.17066  -0.09853
                          16        17        18        19        20
                        (A2)--O   (A1)--O   (E)--V    (E)--V    (A1)--V
     Eigenvalues --    -0.31090  -0.03324   0.61210   0.61210   0.69023
   1 1   B  1S          0.00000  -0.11715   0.00000   0.00000  -0.13642
   2        2S          0.00000   0.06917   0.00000   0.00000  -0.11604
   3        2PX        -0.00000   0.00000   0.15430   0.00000   0.00000
   4        2PY         0.00000  -0.00000   0.00000   0.15430  -0.00000
   5        2PZ         0.00000   0.40481   0.00000   0.00000   0.01425
   6        3S          0.00000   0.71202   0.00000  -0.00000   1.27276
   7        3PX         0.00000   0.00000   1.31399   0.00000   0.00000
   8        3PY         0.00000  -0.00000   0.00000   1.31399   0.00000
   9        3PZ         0.00000   0.36906   0.00000   0.00000  -1.02098
  10 2   F  1S          0.00000   0.02051   0.00000   0.07168   0.06532
  11        2S          0.00000  -0.01224   0.00000  -0.02290  -0.04075
  12        2PX         0.31605   0.00000  -0.15207   0.00000   0.00000
  13        2PY         0.00000   0.04400   0.00000   0.04538   0.11891
  14        2PZ         0.00000  -0.16396   0.00000  -0.08261   0.06404
  15        3S          0.00000  -0.14018   0.00000  -0.68021  -0.54030
  16        3PX         0.36111   0.00000  -0.28190   0.00000   0.00000
  17        3PY         0.00000   0.06516   0.00000   0.15091   0.26472
  18        3PZ         0.00000  -0.23525   0.00000  -0.14801   0.09863
  19 3   F  1S         -0.00000   0.02051  -0.06207  -0.03584   0.06532
  20        2S         -0.00000  -0.01224   0.01983   0.01145  -0.04075
  21        2PX        -0.15802  -0.03810  -0.00398   0.08550  -0.10298
  22        2PY         0.27371  -0.02200   0.08550  -0.10271  -0.05945
  23        2PZ        -0.00000  -0.16396   0.07155   0.04131   0.06404
  24        3S          0.00000  -0.14018   0.58908   0.34011  -0.54030
  25        3PX        -0.18055  -0.05643   0.04271   0.18741  -0.22926
  26        3PY         0.31273  -0.03258   0.18741  -0.17370  -0.13236
  27        3PZ        -0.00000  -0.23525   0.12818   0.07400   0.09863
  28 4   F  1S          0.00000   0.02051   0.06207  -0.03584   0.06532
  29        2S          0.00000  -0.01224  -0.01983   0.01145  -0.04075
  30        2PX        -0.15802   0.03810  -0.00398  -0.08550   0.10298
  31        2PY        -0.27371  -0.02200  -0.08550  -0.10271  -0.05945
  32        2PZ         0.00000  -0.16396  -0.07155   0.04131   0.06404
  33        3S         -0.00000  -0.14018  -0.58908   0.34011  -0.54030
  34        3PX        -0.18055   0.05643   0.04271  -0.18741   0.22926
  35        3PY        -0.31273  -0.03258  -0.18741  -0.17370  -0.13236
  36        3PZ         0.00000  -0.23525  -0.12818   0.07400   0.09863
                          21        22        23        24        25
                        (A1)--V   (E)--V    (E)--V    (A1)--V   (E)--V
     Eigenvalues --     0.86394   1.03355   1.03355   1.17095   2.44358
   1 1   B  1S          0.01678  -0.00000   0.00000  -0.10779  -0.00000
   2        2S          0.46415   0.00000   0.00000   1.57031  -0.00000
   3        2PX         0.00000   0.00000   1.28836   0.00000   0.00000
   4        2PY         0.00000   1.28836   0.00000  -0.00000  -0.05837
   5        2PZ         1.07750  -0.00000   0.00000  -0.39389  -0.00000
   6        3S         -0.83245   0.00000   0.00000  -1.14311   0.00000
   7        3PX         0.00000   0.00000  -0.76263   0.00000   0.00000
   8        3PY        -0.00000  -0.76263   0.00000   0.00000  -0.11527
   9        3PZ        -0.78326   0.00000   0.00000   0.24014  -0.00000
  10 2   F  1S         -0.02128   0.02278   0.00000   0.01102  -0.00941
  11        2S          0.01949  -0.04071   0.00000  -0.03150   0.03780
  12        2PX         0.00000   0.00000  -0.03101   0.00000   0.00000
  13        2PY        -0.05282   0.20813   0.00000   0.18538   0.25963
  14        2PZ        -0.00095  -0.08455   0.00000  -0.05727   0.56578
  15        3S          0.14911   0.00747   0.00000   0.10158   0.03336
  16        3PX         0.00000   0.00000   0.01672   0.00000   0.00000
  17        3PY        -0.10890   0.31842   0.00000   0.15221  -0.26145
  18        3PZ         0.07529  -0.10247   0.00000  -0.05778  -0.51815
  19 3   F  1S         -0.02128  -0.01139  -0.01973   0.01102   0.00471
  20        2S          0.01949   0.02036   0.03526  -0.03150  -0.01890
  21        2PX         0.04574   0.10355   0.14835  -0.16054   0.34902
  22        2PY         0.02641   0.02878   0.10355  -0.09269  -0.34489
  23        2PZ        -0.00095   0.04227   0.07322  -0.05727  -0.28289
  24        3S          0.14911  -0.00373  -0.00647   0.10158  -0.01668
  25        3PX         0.09431   0.13064   0.24299  -0.13182  -0.34110
  26        3PY         0.05445   0.09214   0.13064  -0.07610   0.32936
  27        3PZ         0.07529   0.05123   0.08874  -0.05778   0.25908
  28 4   F  1S         -0.02128  -0.01139   0.01973   0.01102   0.00471
  29        2S          0.01949   0.02036  -0.03526  -0.03150  -0.01890
  30        2PX        -0.04574  -0.10355   0.14835   0.16054  -0.34902
  31        2PY         0.02641   0.02878  -0.10355  -0.09269  -0.34489
  32        2PZ        -0.00095   0.04227  -0.07322  -0.05727  -0.28289
  33        3S          0.14911  -0.00373   0.00647   0.10158  -0.01668
  34        3PX        -0.09431  -0.13064   0.24299   0.13182   0.34110
  35        3PY         0.05445   0.09214  -0.13064  -0.07610   0.32936
  36        3PZ         0.07529   0.05123  -0.08874  -0.05778   0.25908
                          26        27        28        29        30
                        (E)--V    (A1)--V   (A2)--V   (E)--V    (E)--V
     Eigenvalues --     2.44358   2.62060   2.62247   2.62757   2.62757
   1 1   B  1S          0.00000  -0.00692   0.00000  -0.00000   0.00000
   2        2S          0.00000   0.16260   0.00000   0.00000   0.00000
   3        2PX         0.05837   0.00000  -0.00000   0.00000   0.28459
   4        2PY         0.00000   0.00000   0.00000  -0.28459   0.00000
   5        2PZ         0.00000  -0.14367   0.00000  -0.00000   0.00000
   6        3S          0.00000   0.12046   0.00000   0.00000   0.00000
   7        3PX         0.11527   0.00000  -0.00000   0.00000   0.22818
   8        3PY         0.00000   0.00000   0.00000  -0.22818   0.00000
   9        3PZ         0.00000  -0.34433   0.00000  -0.00000   0.00000
  10 2   F  1S          0.00000   0.02367   0.00000  -0.03521   0.00000
  11        2S          0.00000  -0.11318   0.00000   0.16726   0.00000
  12        2PX         0.54639   0.00000   0.58757   0.00000   0.51290
  13        2PY         0.00000  -0.33692   0.00000   0.20898   0.00000
  14        2PZ         0.00000  -0.47045   0.00000  -0.59797   0.00000
  15        3S          0.00000  -0.02953   0.00000   0.04375   0.00000
  16        3PX        -0.52629   0.00000  -0.58586   0.00000  -0.55807
  17        3PY         0.00000   0.40934   0.00000  -0.29181   0.00000
  18        3PZ         0.00000   0.49886   0.00000   0.64720   0.00000
  19 3   F  1S         -0.00815   0.02367   0.00000   0.01761  -0.03049
  20        2S          0.03274  -0.11318  -0.00000  -0.08363   0.14485
  21        2PX        -0.05813   0.29178  -0.29378   0.31258  -0.02851
  22        2PY        -0.34902   0.16846   0.50885  -0.33243  -0.31258
  23        2PZ         0.48998  -0.47045   0.00000   0.29899  -0.51786
  24        3S          0.02889  -0.02953  -0.00000  -0.02187   0.03789
  25        3PX         0.06451  -0.35450   0.29293  -0.36801   0.07934
  26        3PY         0.34110  -0.20467  -0.50737   0.34560   0.36801
  27        3PZ        -0.44873   0.49886  -0.00000  -0.32360   0.56049
  28 4   F  1S          0.00815   0.02367  -0.00000   0.01761   0.03049
  29        2S         -0.03274  -0.11318   0.00000  -0.08363  -0.14485
  30        2PX        -0.05813  -0.29178  -0.29378  -0.31258  -0.02851
  31        2PY         0.34902   0.16846  -0.50885  -0.33243   0.31258
  32        2PZ        -0.48998  -0.47045  -0.00000   0.29899   0.51786
  33        3S         -0.02889  -0.02953   0.00000  -0.02187  -0.03789
  34        3PX         0.06451   0.35450   0.29293   0.36801   0.07934
  35        3PY        -0.34110  -0.20467   0.50737   0.34560  -0.36801
  36        3PZ         0.44873   0.49886   0.00000  -0.32360  -0.56049
                          31        32        33        34        35
                        (A1)--V   (E)--V    (E)--V    (E)--V    (E)--V
     Eigenvalues --     2.69845   2.77773   2.77773   4.11320   4.11320
   1 1   B  1S          0.01500   0.00000   0.00000   0.00000  -0.00000
   2        2S          0.69147   0.00000   0.00000   0.00000   0.00000
   3        2PX         0.00000   0.37181   0.00000   0.30638   0.00000
   4        2PY        -0.00000   0.00000   0.37181   0.00000  -0.30638
   5        2PZ        -0.21692   0.00000  -0.00000   0.00000  -0.00000
   6        3S         -0.07008   0.00000  -0.00000   0.00000   0.00000
   7        3PX         0.00000  -0.31670   0.00000   0.46887   0.00000
   8        3PY         0.00000   0.00000  -0.31670   0.00000  -0.46887
   9        3PZ         0.16101   0.00000   0.00000   0.00000  -0.00000
  10 2   F  1S          0.02228   0.00000   0.01128   0.00000   0.09024
  11        2S         -0.09844   0.00000  -0.07507   0.00000  -1.26620
  12        2PX         0.00000  -0.35046   0.00000   0.10001   0.00000
  13        2PY        -0.45572   0.00000  -0.75858   0.00000   0.12030
  14        2PZ         0.35166   0.00000   0.01647   0.00000  -0.09180
  15        3S          0.00731   0.00000   0.08587   0.00000   1.38305
  16        3PX         0.00000   0.38550   0.00000  -0.21089   0.00000
  17        3PY         0.57390   0.00000   0.86886   0.00000  -0.26647
  18        3PZ        -0.40842   0.00000  -0.03767   0.00000   0.18984
  19 3   F  1S          0.02228  -0.00977  -0.00564   0.07815  -0.04512
  20        2S         -0.09844   0.06501   0.03754  -1.09656   0.63310
  21        2PX         0.39466  -0.65655  -0.17672  -0.06522   0.09539
  22        2PY         0.22786  -0.17672  -0.45249  -0.09539  -0.04493
  23        2PZ         0.35166  -0.01427  -0.00824  -0.07950   0.04590
  24        3S          0.00731  -0.07437  -0.04294   1.19776  -0.69153
  25        3PX        -0.49701   0.74802   0.20930   0.14713  -0.20670
  26        3PY        -0.28695   0.20930   0.50634   0.20670   0.09155
  27        3PZ        -0.40842   0.03262   0.01883   0.16440  -0.09492
  28 4   F  1S          0.02228   0.00977  -0.00564  -0.07815  -0.04512
  29        2S         -0.09844  -0.06501   0.03754   1.09656   0.63310
  30        2PX        -0.39466  -0.65655   0.17672  -0.06522  -0.09539
  31        2PY         0.22786   0.17672  -0.45249   0.09539  -0.04493
  32        2PZ         0.35166   0.01427  -0.00824   0.07950   0.04590
  33        3S          0.00731   0.07437  -0.04294  -1.19776  -0.69153
  34        3PX         0.49701   0.74802  -0.20930   0.14713   0.20670
  35        3PY        -0.28695  -0.20930   0.50634  -0.20670   0.09155
  36        3PZ        -0.40842  -0.03262   0.01883  -0.16440  -0.09492
                          36
                        (A1)--V
     Eigenvalues --     4.58582
   1 1   B  1S          0.06346
   2        2S         -0.24289
   3        2PX         0.00000
   4        2PY        -0.00000
   5        2PZ         0.23662
   6        3S         -0.92642
   7        3PX         0.00000
   8        3PY        -0.00000
   9        3PZ         0.38901
  10 2   F  1S          0.04887
  11        2S         -0.94544
  12        2PX         0.00000
  13        2PY         0.15018
  14        2PZ         0.02683
  15        3S          1.19880
  16        3PX         0.00000
  17        3PY        -0.39681
  18        3PZ        -0.03285
  19 3   F  1S          0.04887
  20        2S         -0.94544
  21        2PX        -0.13006
  22        2PY        -0.07509
  23        2PZ         0.02683
  24        3S          1.19880
  25        3PX         0.34365
  26        3PY         0.19841
  27        3PZ        -0.03285
  28 4   F  1S          0.04887
  29        2S         -0.94544
  30        2PX         0.13006
  31        2PY        -0.07509
  32        2PZ         0.02683
  33        3S          1.19880
  34        3PX        -0.34365
  35        3PY         0.19841
  36        3PZ        -0.03285
     Beta Molecular Orbital Coefficients:
                           1         2         3         4         5
                        (A1)--O   (E)--O    (E)--O    (A1)--O   (A1)--O
     Eigenvalues --   -25.85493 -25.85407 -25.85407  -7.36693  -1.31365
   1 1   B  1S         -0.00080   0.00000  -0.00000   0.98736  -0.07476
   2        2S          0.00197   0.00000   0.00000   0.08964   0.06819
   3        2PX         0.00000  -0.00340   0.00000   0.00000   0.00000
   4        2PY        -0.00000   0.00000   0.00340  -0.00000   0.00000
   5        2PZ        -0.00288   0.00000  -0.00000  -0.00653  -0.03470
   6        3S          0.01604   0.00000   0.00000  -0.02119   0.04174
   7        3PX         0.00000  -0.00790   0.00000   0.00000   0.00000
   8        3PY        -0.00000   0.00000   0.00790  -0.00000   0.00000
   9        3PZ        -0.00630   0.00000  -0.00000  -0.00119   0.00226
  10 2   F  1S          0.56709   0.00000   0.80174   0.00008  -0.13917
  11        2S          0.05694   0.00000   0.07824   0.00235   0.12989
  12        2PX         0.00000  -0.00056   0.00000   0.00000   0.00000
  13        2PY        -0.00164   0.00000  -0.00150  -0.00142  -0.03174
  14        2PZ         0.00006   0.00000   0.00074   0.00027   0.00528
  15        3S         -0.02302   0.00000  -0.02641  -0.00515   0.44032
  16        3PX         0.00000   0.00224   0.00000   0.00000   0.00000
  17        3PY         0.00490   0.00000   0.00300   0.00852  -0.04245
  18        3PZ         0.00017   0.00000  -0.00194  -0.00206   0.00886
  19 3   F  1S          0.56709   0.69433  -0.40087   0.00008  -0.13917
  20        2S          0.05694   0.06776  -0.03912   0.00235   0.12989
  21        2PX         0.00142   0.00099  -0.00089   0.00123   0.02749
  22        2PY         0.00082   0.00089   0.00004   0.00071   0.01587
  23        2PZ         0.00006   0.00064  -0.00037   0.00027   0.00528
  24        3S         -0.02302  -0.02287   0.01321  -0.00515   0.44032
  25        3PX        -0.00425  -0.00169   0.00227  -0.00738   0.03677
  26        3PY        -0.00245  -0.00227  -0.00093  -0.00426   0.02123
  27        3PZ         0.00017  -0.00168   0.00097  -0.00206   0.00886
  28 4   F  1S          0.56709  -0.69433  -0.40087   0.00008  -0.13917
  29        2S          0.05694  -0.06776  -0.03912   0.00235   0.12989
  30        2PX        -0.00142   0.00099   0.00089  -0.00123  -0.02749
  31        2PY         0.00082  -0.00089   0.00004   0.00071   0.01587
  32        2PZ         0.00006  -0.00064  -0.00037   0.00027   0.00528
  33        3S         -0.02302   0.02287   0.01321  -0.00515   0.44032
  34        3PX         0.00425  -0.00169  -0.00227   0.00738  -0.03677
  35        3PY        -0.00245   0.00227  -0.00093  -0.00426   0.02123
  36        3PZ         0.00017   0.00168   0.00097  -0.00206   0.00886
                           6         7         8         9        10
                        (E)--O    (E)--O    (A1)--O   (E)--O    (E)--O
     Eigenvalues --    -1.26434  -1.26434  -0.49714  -0.42697  -0.42697
   1 1   B  1S          0.00000   0.00000   0.12491   0.00000   0.00000
   2        2S          0.00000   0.00000  -0.19588  -0.00000   0.00000
   3        2PX        -0.06986   0.00000   0.00000   0.00000   0.21120
   4        2PY         0.00000   0.06986  -0.00000  -0.21120   0.00000
   5        2PZ         0.00000   0.00000   0.10376   0.00000   0.00000
   6        3S          0.00000  -0.00000  -0.08075   0.00000   0.00000
   7        3PX        -0.00385   0.00000   0.00000   0.00000   0.05894
   8        3PY         0.00000   0.00385   0.00000  -0.05894   0.00000
   9        3PZ         0.00000  -0.00000  -0.00151   0.00000   0.00000
  10 2   F  1S          0.00000  -0.20549  -0.04091  -0.03301   0.00000
  11        2S          0.00000   0.19412   0.04273   0.02976   0.00000
  12        2PX        -0.00671   0.00000   0.00000   0.00000   0.25260
  13        2PY         0.00000  -0.03005   0.25205   0.27430   0.00000
  14        2PZ         0.00000   0.00860  -0.02467  -0.10818   0.00000
  15        3S          0.00000   0.65551   0.15715   0.15311   0.00000
  16        3PX        -0.00765   0.00000   0.00000   0.00000   0.29144
  17        3PY         0.00000  -0.03912   0.28933   0.30683   0.00000
  18        3PZ         0.00000   0.01320  -0.02700  -0.11511   0.00000
  19 3   F  1S         -0.17796   0.10275  -0.04091   0.01651  -0.02859
  20        2S          0.16811  -0.09706   0.04273  -0.01488   0.02578
  21        2PX         0.02086  -0.01592  -0.21828   0.22815  -0.14257
  22        2PY         0.01592  -0.00248  -0.12603  -0.12088  -0.22815
  23        2PZ         0.00745  -0.00430  -0.02467   0.05409  -0.09368
  24        3S          0.56769  -0.32776   0.15715  -0.07656   0.13260
  25        3PX         0.02743  -0.02025  -0.25057   0.25906  -0.15726
  26        3PY         0.02025  -0.00405  -0.14467  -0.14187  -0.25906
  27        3PZ         0.01143  -0.00660  -0.02700   0.05755  -0.09969
  28 4   F  1S          0.17796   0.10275  -0.04091   0.01651   0.02859
  29        2S         -0.16811  -0.09706   0.04273  -0.01488  -0.02578
  30        2PX         0.02086   0.01592   0.21828  -0.22815  -0.14257
  31        2PY        -0.01592  -0.00248  -0.12603  -0.12088   0.22815
  32        2PZ        -0.00745  -0.00430  -0.02467   0.05409   0.09368
  33        3S         -0.56769  -0.32776   0.15715  -0.07656  -0.13260
  34        3PX         0.02743   0.02025   0.25057  -0.25906  -0.15726
  35        3PY        -0.02025  -0.00405  -0.14467  -0.14187   0.25906
  36        3PZ        -0.01143  -0.00660  -0.02700   0.05755   0.09969
                          11        12        13        14        15
                        (A1)--O   (E)--O    (E)--O    (E)--O    (E)--O
     Eigenvalues --    -0.38254  -0.33920  -0.33920  -0.32156  -0.32156
   1 1   B  1S         -0.04185   0.00000   0.00000  -0.00000   0.00000
   2        2S          0.06288   0.00000   0.00000  -0.00000   0.00000
   3        2PX         0.00000   0.00000  -0.09948   0.00000   0.03588
   4        2PY         0.00000   0.09948   0.00000  -0.03588   0.00000
   5        2PZ         0.08521   0.00000   0.00000   0.00000   0.00000
   6        3S          0.02901  -0.00000   0.00000   0.00000   0.00000
   7        3PX         0.00000   0.00000   0.07564   0.00000  -0.11897
   8        3PY         0.00000  -0.07564   0.00000   0.11897   0.00000
   9        3PZ         0.16548   0.00000   0.00000  -0.00000   0.00000
  10 2   F  1S          0.00230   0.00613   0.00000   0.00182   0.00000
  11        2S         -0.00890  -0.01257   0.00000   0.00597   0.00000
  12        2PX         0.00000   0.00000   0.29260   0.00000  -0.15903
  13        2PY         0.03840  -0.14085   0.00000   0.26941   0.00000
  14        2PZ         0.27858   0.27334   0.00000   0.30449   0.00000
  15        3S          0.01316  -0.00265   0.00000  -0.04469   0.00000
  16        3PX         0.00000   0.00000   0.34283   0.00000  -0.16495
  17        3PY         0.03095  -0.16133   0.00000   0.31870   0.00000
  18        3PZ         0.31641   0.33348   0.00000   0.35094   0.00000
  19 3   F  1S          0.00230  -0.00306   0.00531  -0.00091   0.00158
  20        2S         -0.00890   0.00629  -0.01089  -0.00298   0.00517
  21        2PX        -0.03325   0.06571   0.17879   0.04779  -0.24181
  22        2PY        -0.01920  -0.25466  -0.06571   0.18663  -0.04779
  23        2PZ         0.27858  -0.13667   0.23672  -0.15225   0.26370
  24        3S          0.01316   0.00132  -0.00229   0.02234  -0.03870
  25        3PX        -0.02680   0.07860   0.20670   0.06658  -0.28027
  26        3PY        -0.01548  -0.29746  -0.07860   0.20339  -0.06658
  27        3PZ         0.31641  -0.16674   0.28880  -0.17547   0.30392
  28 4   F  1S          0.00230  -0.00306  -0.00531  -0.00091  -0.00158
  29        2S         -0.00890   0.00629   0.01089  -0.00298  -0.00517
  30        2PX         0.03325  -0.06571   0.17879  -0.04779  -0.24181
  31        2PY        -0.01920  -0.25466   0.06571   0.18663   0.04779
  32        2PZ         0.27858  -0.13667  -0.23672  -0.15225  -0.26370
  33        3S          0.01316   0.00132   0.00229   0.02234   0.03870
  34        3PX         0.02680  -0.07860   0.20670  -0.06658  -0.28027
  35        3PY        -0.01548  -0.29746   0.07860   0.20339   0.06658
  36        3PZ         0.31641  -0.16674  -0.28880  -0.17547  -0.30392
                          16        17        18        19        20
                        (A2)--O   (A1)--V   (E)--V    (E)--V    (A1)--V
     Eigenvalues --    -0.30961   0.43850   0.65386   0.65386   0.69621
   1 1   B  1S          0.00000  -0.12038   0.00000   0.00000  -0.13953
   2        2S          0.00000  -0.05105   0.00000   0.00000  -0.16149
   3        2PX        -0.00000   0.00000   0.09333   0.00000   0.00000
   4        2PY         0.00000  -0.00000   0.00000   0.09333  -0.00000
   5        2PZ         0.00000   0.24195   0.00000   0.00000  -0.02747
   6        3S          0.00000   0.84961   0.00000  -0.00000   1.35470
   7        3PX         0.00000   0.00000   1.34731   0.00000   0.00000
   8        3PY         0.00000  -0.00000   0.00000   1.34731   0.00000
   9        3PZ         0.00000   0.54997   0.00000   0.00000  -0.96729
  10 2   F  1S          0.00000   0.02334   0.00000   0.07125   0.06708
  11        2S          0.00000  -0.01881   0.00000  -0.02381  -0.04194
  12        2PX         0.31562   0.00000  -0.15014   0.00000   0.00000
  13        2PY         0.00000   0.03227   0.00000   0.03372   0.11911
  14        2PZ         0.00000  -0.12807   0.00000  -0.07985   0.06144
  15        3S          0.00000  -0.14973   0.00000  -0.67919  -0.55411
  16        3PX         0.36154   0.00000  -0.27420   0.00000   0.00000
  17        3PY         0.00000   0.05356   0.00000   0.13212   0.26820
  18        3PZ         0.00000  -0.20468   0.00000  -0.15352   0.08851
  19 3   F  1S         -0.00000   0.02334  -0.06171  -0.03563   0.06708
  20        2S         -0.00000  -0.01881   0.02062   0.01191  -0.04194
  21        2PX        -0.15781  -0.02795  -0.01224   0.07962  -0.10315
  22        2PY         0.27334  -0.01614   0.07962  -0.10418  -0.05956
  23        2PZ         0.00000  -0.12807   0.06915   0.03992   0.06144
  24        3S          0.00000  -0.14973   0.58819   0.33959  -0.55411
  25        3PX        -0.18077  -0.04638   0.03054   0.17594  -0.23226
  26        3PY         0.31310  -0.02678   0.17594  -0.17262  -0.13410
  27        3PZ         0.00000  -0.20468   0.13296   0.07676   0.08851
  28 4   F  1S          0.00000   0.02334   0.06171  -0.03563   0.06708
  29        2S          0.00000  -0.01881  -0.02062   0.01191  -0.04194
  30        2PX        -0.15781   0.02795  -0.01224  -0.07962   0.10315
  31        2PY        -0.27334  -0.01614  -0.07962  -0.10418  -0.05956
  32        2PZ        -0.00000  -0.12807  -0.06915   0.03992   0.06144
  33        3S         -0.00000  -0.14973  -0.58819   0.33959  -0.55411
  34        3PX        -0.18077   0.04638   0.03054  -0.17594   0.23226
  35        3PY        -0.31310  -0.02678  -0.17594  -0.17262  -0.13410
  36        3PZ        -0.00000  -0.20468  -0.13296   0.07676   0.08851
                          21        22        23        24        25
                        (A1)--V   (E)--V    (E)--V    (A1)--V   (E)--V
     Eigenvalues --     0.96289   1.06068   1.06068   1.19591   2.45432
   1 1   B  1S          0.00227  -0.00000   0.00000  -0.11575  -0.00000
   2        2S          0.23793   0.00000   0.00000   1.61854  -0.00000
   3        2PX         0.00000   0.00000   1.29463   0.00000   0.00000
   4        2PY         0.00000   1.29463   0.00000  -0.00000  -0.08036
   5        2PZ         1.17866  -0.00000   0.00000  -0.21868  -0.00000
   6        3S         -0.46793  -0.00000   0.00000  -1.16867   0.00000
   7        3PX         0.00000   0.00000  -0.70013   0.00000   0.00000
   8        3PY        -0.00000  -0.70013   0.00000   0.00000  -0.12622
   9        3PZ        -0.77774   0.00000   0.00000   0.13969  -0.00000
  10 2   F  1S         -0.01548   0.02640   0.00000   0.01091  -0.01155
  11        2S          0.01772  -0.04290   0.00000  -0.03065   0.04274
  12        2PX         0.00000   0.00000  -0.03914   0.00000   0.00000
  13        2PY        -0.06586   0.20962   0.00000   0.18095   0.27190
  14        2PZ        -0.00684  -0.08653   0.00000  -0.06144   0.54661
  15        3S          0.08315  -0.02437   0.00000   0.10012   0.04250
  16        3PX         0.00000   0.00000   0.00803   0.00000   0.00000
  17        3PY        -0.10992   0.32123   0.00000   0.14199  -0.28212
  18        3PZ         0.06300  -0.11630   0.00000  -0.05810  -0.48882
  19 3   F  1S         -0.01548  -0.01320  -0.02286   0.01091   0.00578
  20        2S          0.01772   0.02145   0.03715  -0.03065  -0.02137
  21        2PX         0.05704   0.10772   0.14743  -0.15671   0.36092
  22        2PY         0.03293   0.02305   0.10772  -0.09048  -0.35324
  23        2PZ        -0.00684   0.04327   0.07494  -0.06144  -0.27331
  24        3S          0.08315   0.01219   0.02111   0.10012  -0.02125
  25        3PX         0.09519   0.13562   0.24293  -0.12297  -0.35808
  26        3PY         0.05496   0.08633   0.13562  -0.07099   0.33809
  27        3PZ         0.06300   0.05815   0.10072  -0.05810   0.24441
  28 4   F  1S         -0.01548  -0.01320   0.02286   0.01091   0.00578
  29        2S          0.01772   0.02145  -0.03715  -0.03065  -0.02137
  30        2PX        -0.05704  -0.10772   0.14743   0.15671  -0.36092
  31        2PY         0.03293   0.02305  -0.10772  -0.09048  -0.35324
  32        2PZ        -0.00684   0.04327  -0.07494  -0.06144  -0.27331
  33        3S          0.08315   0.01219  -0.02111   0.10012  -0.02125
  34        3PX        -0.09519  -0.13562   0.24293   0.12297   0.35808
  35        3PY         0.05496   0.08633  -0.13562  -0.07099   0.33809
  36        3PZ         0.06300   0.05815  -0.10072  -0.05810   0.24441
                          26        27        28        29        30
                        (E)--V    (A2)--V   (A1)--V   (E)--V    (E)--V
     Eigenvalues --     2.45432   2.62420   2.63308   2.63738   2.63738
   1 1   B  1S          0.00000   0.00000  -0.00466  -0.00000   0.00000
   2        2S          0.00000   0.00000   0.25863   0.00000   0.00000
   3        2PX         0.08036  -0.00000   0.00000   0.00000   0.27284
   4        2PY         0.00000   0.00000   0.00000  -0.27284   0.00000
   5        2PZ         0.00000   0.00000  -0.17551  -0.00000   0.00000
   6        3S          0.00000   0.00000   0.10848   0.00000   0.00000
   7        3PX         0.12622  -0.00000   0.00000   0.00000   0.22708
   8        3PY         0.00000   0.00000   0.00000  -0.22708   0.00000
   9        3PZ         0.00000   0.00000  -0.32311  -0.00000   0.00000
  10 2   F  1S          0.00000   0.00000   0.02660  -0.03460   0.00000
  11        2S          0.00000   0.00000  -0.12268   0.16908   0.00000
  12        2PX         0.56161   0.58780   0.00000   0.00000   0.49883
  13        2PY         0.00000   0.00000  -0.39508   0.18573   0.00000
  14        2PZ         0.00000   0.00000  -0.42057  -0.62014   0.00000
  15        3S          0.00000   0.00000  -0.03298   0.03693   0.00000
  16        3PX        -0.54482  -0.58559   0.00000   0.00000  -0.54418
  17        3PY         0.00000   0.00000   0.48494  -0.26396   0.00000
  18        3PZ         0.00000   0.00000   0.43769   0.66098   0.00000
  19 3   F  1S         -0.01000   0.00000   0.02660   0.01730  -0.02997
  20        2S          0.03702  -0.00000  -0.12268  -0.08454   0.14643
  21        2PX        -0.06352  -0.29390   0.34215   0.29642  -0.01459
  22        2PY        -0.36092   0.50905   0.19754  -0.32769  -0.29642
  23        2PZ         0.47338   0.00000  -0.42057   0.31007  -0.53706
  24        3S          0.03680  -0.00000  -0.03298  -0.01847   0.03198
  25        3PX         0.07538   0.29280  -0.41997  -0.34993   0.06192
  26        3PY         0.35808  -0.50714  -0.24247   0.34215   0.34993
  27        3PZ        -0.42333  -0.00000   0.43769  -0.33049   0.57243
  28 4   F  1S          0.01000  -0.00000   0.02660   0.01730   0.02997
  29        2S         -0.03702   0.00000  -0.12268  -0.08454  -0.14643
  30        2PX        -0.06352  -0.29390  -0.34215  -0.29642  -0.01459
  31        2PY         0.36092  -0.50905   0.19754  -0.32769   0.29642
  32        2PZ        -0.47338  -0.00000  -0.42057   0.31007   0.53706
  33        3S         -0.03680   0.00000  -0.03298  -0.01847  -0.03198
  34        3PX         0.07538   0.29280   0.41997   0.34993   0.06192
  35        3PY        -0.35808   0.50714  -0.24247   0.34215  -0.34993
  36        3PZ         0.42333   0.00000   0.43769  -0.33049  -0.57243
                          31        32        33        34        35
                        (A1)--V   (E)--V    (E)--V    (E)--V    (E)--V
     Eigenvalues --     2.71215   2.78080   2.78080   4.12366   4.12366
   1 1   B  1S          0.01523   0.00000   0.00000   0.00000  -0.00000
   2        2S          0.66418   0.00000   0.00000   0.00000   0.00000
   3        2PX         0.00000   0.37649   0.00000   0.30935   0.00000
   4        2PY        -0.00000   0.00000   0.37649   0.00000  -0.30935
   5        2PZ        -0.18871   0.00000  -0.00000   0.00000  -0.00000
   6        3S         -0.08809   0.00000  -0.00000   0.00000   0.00000
   7        3PX         0.00000  -0.31587   0.00000   0.47127   0.00000
   8        3PY         0.00000   0.00000  -0.31587   0.00000  -0.47127
   9        3PZ         0.20738   0.00000   0.00000   0.00000  -0.00000
  10 2   F  1S          0.01884   0.00000   0.01177   0.00000   0.09023
  11        2S         -0.08545   0.00000  -0.07878   0.00000  -1.26579
  12        2PX         0.00000  -0.34591   0.00000   0.10042   0.00000
  13        2PY        -0.40632   0.00000  -0.76019   0.00000   0.12117
  14        2PZ         0.41357   0.00000   0.03270   0.00000  -0.09646
  15        3S          0.01620   0.00000   0.08758   0.00000   1.38340
  16        3PX         0.00000   0.38024   0.00000  -0.21205   0.00000
  17        3PY         0.51115   0.00000   0.87099   0.00000  -0.26798
  18        3PZ        -0.47009   0.00000  -0.05266   0.00000   0.19236
  19 3   F  1S          0.01884  -0.01020  -0.00589   0.07814  -0.04512
  20        2S         -0.08545   0.06823   0.03939  -1.09621   0.63290
  21        2PX         0.35188  -0.65662  -0.17939  -0.06577   0.09595
  22        2PY         0.20316  -0.17939  -0.44948  -0.09595  -0.04502
  23        2PZ         0.41357  -0.02832  -0.01635  -0.08354   0.04823
  24        3S          0.01620  -0.07584  -0.04379   1.19806  -0.69170
  25        3PX        -0.44267   0.74830   0.21250   0.14798  -0.20786
  26        3PY        -0.25557   0.21250   0.50292   0.20786   0.09204
  27        3PZ        -0.47009   0.04560   0.02633   0.16659  -0.09618
  28 4   F  1S          0.01884   0.01020  -0.00589  -0.07814  -0.04512
  29        2S         -0.08545  -0.06823   0.03939   1.09621   0.63290
  30        2PX        -0.35188  -0.65662   0.17939  -0.06577  -0.09595
  31        2PY         0.20316   0.17939  -0.44948   0.09595  -0.04502
  32        2PZ         0.41357   0.02832  -0.01635   0.08354   0.04823
  33        3S          0.01620   0.07584  -0.04379  -1.19806  -0.69170
  34        3PX         0.44267   0.74830  -0.21250   0.14798   0.20786
  35        3PY        -0.25557  -0.21250   0.50292  -0.20786   0.09204
  36        3PZ        -0.47009  -0.04560   0.02633  -0.16659  -0.09618
                          36
                        (A1)--V
     Eigenvalues --     4.59384
   1 1   B  1S          0.06404
   2        2S         -0.24600
   3        2PX         0.00000
   4        2PY        -0.00000
   5        2PZ         0.23400
   6        3S         -0.92773
   7        3PX         0.00000
   8        3PY        -0.00000
   9        3PZ         0.38600
  10 2   F  1S          0.04896
  11        2S         -0.94563
  12        2PX         0.00000
  13        2PY         0.15041
  14        2PZ         0.02362
  15        3S          1.19849
  16        3PX         0.00000
  17        3PY        -0.39692
  18        3PZ        -0.03010
  19 3   F  1S          0.04896
  20        2S         -0.94563
  21        2PX        -0.13026
  22        2PY        -0.07520
  23        2PZ         0.02362
  24        3S          1.19849
  25        3PX         0.34374
  26        3PY         0.19846
  27        3PZ        -0.03010
  28 4   F  1S          0.04896
  29        2S         -0.94563
  30        2PX         0.13026
  31        2PY        -0.07520
  32        2PZ         0.02362
  33        3S          1.19849
  34        3PX        -0.34374
  35        3PY         0.19846
  36        3PZ        -0.03010
     Alpha Density Matrix:
                           1         2         3         4         5
   1 1   B  1S          1.01474
   2        2S          0.04316   0.07019
   3        2PX         0.00000  -0.00000   0.06360
   4        2PY        -0.00000   0.00000  -0.00000   0.06360
   5        2PZ        -0.05019   0.02326   0.00000  -0.00000   0.19674
   6        3S         -0.12865   0.08432   0.00000  -0.00000   0.29552
   7        3PX        -0.00000   0.00000   0.00148  -0.00000   0.00000
   8        3PY         0.00000  -0.00000   0.00000   0.00148  -0.00000
   9        3PZ        -0.05798   0.04625   0.00000  -0.00000   0.18071
  10 2   F  1S          0.00184   0.00186  -0.00000  -0.00391   0.00856
  11        2S          0.00010  -0.00075   0.00000   0.00642  -0.00718
  12        2PX         0.00000  -0.00000   0.02160  -0.00000   0.00000
  13        2PY         0.02661  -0.04840  -0.00000  -0.08701   0.04453
  14        2PZ         0.00120   0.01604   0.00000   0.03793  -0.02511
  15        3S          0.00054  -0.01456   0.00000   0.01284  -0.05874
  16        3PX         0.00000  -0.00000   0.02493  -0.00000   0.00000
  17        3PY         0.03973  -0.05421  -0.00000  -0.09782   0.05532
  18        3PZ         0.00634   0.01165   0.00000   0.04149  -0.05071
  19 3   F  1S          0.00184   0.00186   0.00339   0.00196   0.00856
  20        2S          0.00010  -0.00075  -0.00556  -0.00321  -0.00718
  21        2PX        -0.02304   0.04191  -0.05986  -0.04703  -0.03856
  22        2PY        -0.01330   0.02420  -0.04703  -0.00555  -0.02227
  23        2PZ         0.00120   0.01604  -0.03285  -0.01897  -0.02511
  24        3S          0.00054  -0.01456  -0.01112  -0.00642  -0.05874
  25        3PX        -0.03441   0.04694  -0.06713  -0.05316  -0.04791
  26        3PY        -0.01986   0.02710  -0.05316  -0.00576  -0.02766
  27        3PZ         0.00634   0.01165  -0.03593  -0.02075  -0.05071
  28 4   F  1S          0.00184   0.00186  -0.00339   0.00196   0.00856
  29        2S          0.00010  -0.00075   0.00556  -0.00321  -0.00718
  30        2PX         0.02304  -0.04191  -0.05986   0.04703   0.03856
  31        2PY        -0.01330   0.02420   0.04703  -0.00555  -0.02227
  32        2PZ         0.00120   0.01604   0.03285  -0.01897  -0.02511
  33        3S          0.00054  -0.01456   0.01112  -0.00642  -0.05874
  34        3PX         0.03441  -0.04694  -0.06713   0.05316   0.04791
  35        3PY        -0.01986   0.02710   0.05316  -0.00576  -0.02766
  36        3PZ         0.00634   0.01165   0.03593  -0.02075  -0.05071
                           6         7         8         9        10
   6        3S          0.53454
   7        3PX         0.00000   0.02455
   8        3PY        -0.00000   0.00000   0.02455
   9        3PZ         0.28616   0.00000  -0.00000   0.17695
  10 2   F  1S          0.02340   0.00000   0.00779   0.00520   1.02949
  11        2S         -0.00824   0.00000   0.00096  -0.00665   0.03332
  12        2PX         0.00000   0.06011  -0.00000   0.00000  -0.00000
  13        2PY         0.00533  -0.00000   0.02447   0.02086  -0.01054
  14        2PZ        -0.08585   0.00000   0.01696  -0.00686   0.00139
  15        3S         -0.10225  -0.00000  -0.01424  -0.05426  -0.24552
  16        3PX         0.00000   0.06745  -0.00000   0.00000  -0.00000
  17        3PY         0.01551  -0.00000   0.02979   0.02734  -0.00214
  18        3PZ        -0.13504   0.00000   0.01687  -0.02955  -0.00188
  19 3   F  1S          0.02340  -0.00674  -0.00389   0.00520   0.00007
  20        2S         -0.00824  -0.00083  -0.00048  -0.00665   0.00121
  21        2PX        -0.00462   0.03338  -0.01543  -0.01806   0.00049
  22        2PY        -0.00267  -0.01543   0.05120  -0.01043   0.00645
  23        2PZ        -0.08585  -0.01469  -0.00848  -0.00686  -0.00415
  24        3S         -0.10225   0.01233   0.00712  -0.05426  -0.00354
  25        3PX        -0.01343   0.03920  -0.01631  -0.02368  -0.00054
  26        3PY        -0.00775  -0.01631   0.05803  -0.01367   0.00435
  27        3PZ        -0.13504  -0.01461  -0.00843  -0.02955  -0.00469
  28 4   F  1S          0.02340   0.00674  -0.00389   0.00520   0.00007
  29        2S         -0.00824   0.00083  -0.00048  -0.00665   0.00121
  30        2PX         0.00462   0.03338   0.01543   0.01806  -0.00049
  31        2PY        -0.00267   0.01543   0.05120  -0.01043   0.00645
  32        2PZ        -0.08585   0.01469  -0.00848  -0.00686  -0.00415
  33        3S         -0.10225  -0.01233   0.00712  -0.05426  -0.00354
  34        3PX         0.01343   0.03920   0.01631   0.02368   0.00054
  35        3PY        -0.00775   0.01631   0.05803  -0.01367   0.00435
  36        3PZ        -0.13504   0.01461  -0.00843  -0.02955  -0.00469
                          11        12        13        14        15
  11        2S          0.06822
  12        2PX         0.00000   0.27418
  13        2PY         0.01101  -0.00000   0.23535
  14        2PZ        -0.00095   0.00000   0.01180   0.28409
  15        3S          0.19590   0.00000   0.03373  -0.00057   0.69730
  16        3PX         0.00000   0.31258  -0.00000   0.00000   0.00000
  17        3PY         0.01147  -0.00000   0.26896   0.01297   0.02884
  18        3PZ        -0.00053   0.00000   0.01289   0.32693   0.00826
  19 3   F  1S          0.00121  -0.00534  -0.00365  -0.00415  -0.00354
  20        2S         -0.00025   0.00132   0.00283   0.00081  -0.00000
  21        2PX        -0.00179   0.00513   0.00812   0.00801   0.00565
  22        2PY        -0.00255   0.01767   0.02002   0.00041  -0.04006
  23        2PZ         0.00081   0.00365  -0.00714   0.00439   0.03230
  24        3S         -0.00000   0.03752   0.01514   0.03230   0.01270
  25        3PX        -0.00178   0.00875   0.01083   0.01824   0.00830
  26        3PY        -0.00302   0.02226   0.02021  -0.00076  -0.04391
  27        3PZ         0.00190   0.01070  -0.00983   0.00766   0.04350
  28 4   F  1S          0.00121   0.00534  -0.00365  -0.00415  -0.00354
  29        2S         -0.00025  -0.00132   0.00283   0.00081  -0.00000
  30        2PX         0.00179   0.00513  -0.00812  -0.00801  -0.00565
  31        2PY        -0.00255  -0.01767   0.02002   0.00041  -0.04006
  32        2PZ         0.00081  -0.00365  -0.00714   0.00439   0.03230
  33        3S         -0.00000  -0.03752   0.01514   0.03230   0.01270
  34        3PX         0.00178   0.00875  -0.01083  -0.01824  -0.00830
  35        3PY        -0.00302  -0.02226   0.02021  -0.00076  -0.04391
  36        3PZ         0.00190  -0.01070  -0.00983   0.00766   0.04350
                          16        17        18        19        20
  16        3PX         0.35665
  17        3PY        -0.00000   0.30813
  18        3PZ         0.00000   0.01339   0.37928
  19 3   F  1S         -0.00403  -0.00171  -0.00469   1.02949
  20        2S          0.00172   0.00305   0.00190   0.03332   0.06822
  21        2PX         0.00301   0.00752   0.01387   0.00912  -0.00954
  22        2PY         0.01895   0.02594  -0.00435   0.00527  -0.00551
  23        2PZ         0.00978  -0.01542   0.00766   0.00139  -0.00095
  24        3S          0.04217   0.01477   0.04350  -0.24552   0.19590
  25        3PX         0.00668   0.01012   0.02661   0.00185  -0.00993
  26        3PY         0.02381   0.02627  -0.00613   0.00107  -0.00574
  27        3PZ         0.01861  -0.01998   0.01433  -0.00188  -0.00053
  28 4   F  1S          0.00403  -0.00171  -0.00469   0.00007   0.00121
  29        2S         -0.00172   0.00305   0.00190   0.00121  -0.00025
  30        2PX         0.00301  -0.00752  -0.01387  -0.00583   0.00311
  31        2PY        -0.01895   0.02594  -0.00435  -0.00281  -0.00028
  32        2PZ        -0.00978  -0.01542   0.00766  -0.00415   0.00081
  33        3S         -0.04217   0.01477   0.04350  -0.00354  -0.00000
  34        3PX         0.00668  -0.01012  -0.02661  -0.00350   0.00351
  35        3PY        -0.02381   0.02627  -0.00613  -0.00264  -0.00003
  36        3PZ        -0.01861  -0.01998   0.01433  -0.00469   0.00190
                          21        22        23        24        25
  21        2PX         0.24506
  22        2PY        -0.01682   0.26447
  23        2PZ        -0.01022  -0.00590   0.28409
  24        3S         -0.02921  -0.01687  -0.00057   0.69730
  25        3PX         0.27987  -0.01889  -0.01123  -0.02498   0.32026
  26        3PY        -0.01889   0.30168  -0.00648  -0.01442  -0.02101
  27        3PZ        -0.01117  -0.00645   0.32693   0.00826  -0.01160
  28 4   F  1S          0.00583  -0.00281  -0.00415  -0.00354   0.00350
  29        2S         -0.00311  -0.00028   0.00081  -0.00000  -0.00351
  30        2PX         0.02746  -0.00478  -0.00436   0.03187   0.03167
  31        2PY         0.00478  -0.00232   0.00673   0.02493   0.00902
  32        2PZ         0.00436   0.00673   0.00439   0.03230   0.00846
  33        3S         -0.03187   0.02493   0.03230   0.01270  -0.03387
  34        3PX         0.03167  -0.00902  -0.00846   0.03387   0.03606
  35        3PY         0.00241  -0.00272   0.01618   0.02914   0.00684
  36        3PZ         0.00317   0.01418   0.00766   0.04350   0.00800
                          26        27        28        29        30
  26        3PY         0.34452
  27        3PZ        -0.00670   0.37928
  28 4   F  1S         -0.00264  -0.00469   1.02949
  29        2S         -0.00003   0.00190   0.03332   0.06822
  30        2PX        -0.00241  -0.00317  -0.00912   0.00954   0.24506
  31        2PY        -0.00272   0.01418   0.00527  -0.00551   0.01682
  32        2PZ         0.01618   0.00766   0.00139  -0.00095   0.01022
  33        3S          0.02914   0.04350  -0.24552   0.19590   0.02921
  34        3PX        -0.00684  -0.00800  -0.00185   0.00993   0.27987
  35        3PY        -0.00311   0.02611   0.00107  -0.00574   0.01889
  36        3PZ         0.02611   0.01433  -0.00188  -0.00053   0.01117
                          31        32        33        34        35
  31        2PY         0.26447
  32        2PZ        -0.00590   0.28409
  33        3S         -0.01687  -0.00057   0.69730
  34        3PX         0.01889   0.01123   0.02498   0.32026
  35        3PY         0.30168  -0.00648  -0.01442   0.02101   0.34452
  36        3PZ        -0.00645   0.32693   0.00826   0.01160  -0.00670
                          36
  36        3PZ         0.37928
     Beta Density Matrix:
                           1         2         3         4         5
   1 1   B  1S          0.99783
   2        2S          0.05631   0.05501
   3        2PX         0.00000  -0.00000   0.06068
   4        2PY        -0.00000   0.00000  -0.00000   0.06068
   5        2PZ         0.00554  -0.01792   0.00000  -0.00000   0.01928
   6        3S         -0.03536   0.01862   0.00000  -0.00000  -0.00726
   7        3PX         0.00000   0.00000   0.00095  -0.00000  -0.00000
   8        3PY        -0.00000  -0.00000   0.00000   0.00095   0.00000
   9        3PZ        -0.00845   0.01074  -0.00000   0.00000   0.01389
  10 2   F  1S          0.00482  -0.00021  -0.00000  -0.00411  -0.00085
  11        2S         -0.00173   0.00025   0.00000   0.00608  -0.00101
  12        2PX         0.00000  -0.00000   0.01900  -0.00000   0.00000
  13        2PY         0.03085  -0.04925  -0.00000  -0.08371   0.03054
  14        2PZ        -0.01487   0.02274   0.00000   0.03972   0.02099
  15        3S         -0.01891  -0.00044   0.00000   0.01471   0.00225
  16        3PX         0.00000  -0.00000   0.02205  -0.00000   0.00000
  17        3PY         0.04643  -0.05685  -0.00000  -0.09501   0.03406
  18        3PZ        -0.01931   0.02561   0.00000   0.04581   0.02387
  19 3   F  1S          0.00482  -0.00021   0.00356   0.00206  -0.00085
  20        2S         -0.00173   0.00025  -0.00526  -0.00304  -0.00101
  21        2PX        -0.02672   0.04265  -0.05803  -0.04448  -0.02645
  22        2PY        -0.01543   0.02463  -0.04448  -0.00668  -0.01527
  23        2PZ        -0.01487   0.02274  -0.03440  -0.01986   0.02099
  24        3S         -0.01891  -0.00044  -0.01274  -0.00735   0.00225
  25        3PX        -0.04021   0.04923  -0.06574  -0.05069  -0.02950
  26        3PY        -0.02321   0.02843  -0.05069  -0.00721  -0.01703
  27        3PZ        -0.01931   0.02561  -0.03967  -0.02291   0.02387
  28 4   F  1S          0.00482  -0.00021  -0.00356   0.00206  -0.00085
  29        2S         -0.00173   0.00025   0.00526  -0.00304  -0.00101
  30        2PX         0.02672  -0.04265  -0.05803   0.04448   0.02645
  31        2PY        -0.01543   0.02463   0.04448  -0.00668  -0.01527
  32        2PZ        -0.01487   0.02274   0.03440  -0.01986   0.02099
  33        3S         -0.01891  -0.00044   0.01274  -0.00735   0.00225
  34        3PX         0.04021  -0.04923  -0.06574   0.05069   0.02950
  35        3PY        -0.02321   0.02843   0.05069  -0.00721  -0.01703
  36        3PZ        -0.01931   0.02561   0.03967  -0.02291   0.02387
                           6         7         8         9        10
   6        3S          0.00981
   7        3PX        -0.00000   0.02343
   8        3PY         0.00000   0.00000   0.02343
   9        3PZ         0.00494   0.00000  -0.00000   0.02743
  10 2   F  1S          0.00665   0.00000   0.00724  -0.00345   1.02879
  11        2S          0.00258   0.00000   0.00127  -0.00160   0.03424
  12        2PX        -0.00000   0.05597  -0.00000   0.00000  -0.00000
  13        2PY        -0.02056  -0.00000   0.02641   0.00591  -0.01119
  14        2PZ         0.01029   0.00000   0.02196   0.04615   0.00557
  15        3S          0.00581  -0.00000  -0.01183   0.00309  -0.24176
  16        3PX        -0.00000   0.06275  -0.00000   0.00000  -0.00000
  17        3PY        -0.02434  -0.00000   0.03191   0.00455  -0.00316
  18        3PZ         0.01177   0.00000   0.02335   0.05242   0.00291
  19 3   F  1S          0.00665  -0.00627  -0.00362  -0.00345  -0.00044
  20        2S          0.00258  -0.00110  -0.00064  -0.00160   0.00155
  21        2PX         0.01781   0.03380  -0.01280  -0.00512   0.00135
  22        2PY         0.01028  -0.01280   0.04858  -0.00296   0.00668
  23        2PZ         0.01029  -0.01902  -0.01098   0.04615  -0.00136
  24        3S          0.00581   0.01024   0.00591   0.00309  -0.00022
  25        3PX         0.02108   0.03962  -0.01335  -0.00394   0.00069
  26        3PY         0.01217  -0.01335   0.05504  -0.00227   0.00485
  27        3PZ         0.01177  -0.02022  -0.01167   0.05242  -0.00042
  28 4   F  1S          0.00665   0.00627  -0.00362  -0.00345  -0.00044
  29        2S          0.00258   0.00110  -0.00064  -0.00160   0.00155
  30        2PX        -0.01781   0.03380   0.01280   0.00512  -0.00135
  31        2PY         0.01028   0.01280   0.04858  -0.00296   0.00668
  32        2PZ         0.01029   0.01902  -0.01098   0.04615  -0.00136
  33        3S          0.00581  -0.01024   0.00591   0.00309  -0.00022
  34        3PX        -0.02108   0.03962   0.01335   0.00394  -0.00069
  35        3PY         0.01217   0.01335   0.05504  -0.00227   0.00485
  36        3PZ         0.01177   0.02022  -0.01167   0.05242  -0.00042
                          11        12        13        14        15
  11        2S          0.06691
  12        2PX         0.00000   0.27437
  13        2PY         0.01180  -0.00000   0.23458
  14        2PZ        -0.00595   0.00000   0.01791   0.25745
  15        3S          0.19197   0.00000   0.03686  -0.02316   0.67515
  16        3PX         0.00000   0.31432  -0.00000   0.00000   0.00000
  17        3PY         0.01258  -0.00000   0.26936   0.02068   0.03447
  18        3PZ        -0.00593   0.00000   0.02067   0.29943  -0.02166
  19 3   F  1S          0.00155  -0.00511  -0.00451  -0.00136  -0.00022
  20        2S         -0.00042   0.00134   0.00341  -0.00129  -0.00228
  21        2PX        -0.00229   0.00481   0.00951   0.00396  -0.00046
  22        2PY        -0.00286   0.01691   0.02006  -0.00188  -0.04089
  23        2PZ        -0.00129   0.00361  -0.00249  -0.01136   0.01475
  24        3S         -0.00228   0.03518   0.02085   0.01475  -0.00861
  25        3PX        -0.00259   0.00809   0.01319   0.01246  -0.00026
  26        3PY        -0.00356   0.02084   0.02018  -0.00470  -0.04616
  27        3PZ        -0.00126   0.01091  -0.00274  -0.01643   0.01657
  28 4   F  1S          0.00155   0.00511  -0.00451  -0.00136  -0.00022
  29        2S         -0.00042  -0.00134   0.00341  -0.00129  -0.00228
  30        2PX         0.00229   0.00481  -0.00951  -0.00396   0.00046
  31        2PY        -0.00286  -0.01691   0.02006  -0.00188  -0.04089
  32        2PZ        -0.00129  -0.00361  -0.00249  -0.01136   0.01475
  33        3S         -0.00228  -0.03518   0.02085   0.01475  -0.00861
  34        3PX         0.00259   0.00809  -0.01319  -0.01246   0.00026
  35        3PY        -0.00356  -0.02084   0.02018  -0.00470  -0.04616
  36        3PZ        -0.00126  -0.01091  -0.00274  -0.01643   0.01657
                          16        17        18        19        20
  16        3PX         0.36045
  17        3PY        -0.00000   0.30985
  18        3PZ         0.00000   0.02379   0.34872
  19 3   F  1S         -0.00386  -0.00303  -0.00042   1.02879
  20        2S          0.00179   0.00402  -0.00126   0.03424   0.06691
  21        2PX         0.00242   0.00992   0.00783   0.00969  -0.01022
  22        2PY         0.01756   0.02585  -0.00808   0.00559  -0.00590
  23        2PZ         0.01030  -0.00845  -0.01643   0.00557  -0.00595
  24        3S          0.03985   0.02331   0.01657  -0.24176   0.19197
  25        3PX         0.00570   0.01385   0.01811   0.00274  -0.01089
  26        3PY         0.02157   0.02615  -0.01233   0.00158  -0.00629
  27        3PZ         0.01973  -0.00952  -0.02297   0.00291  -0.00593
  28 4   F  1S          0.00386  -0.00303  -0.00042  -0.00044   0.00155
  29        2S         -0.00179   0.00402  -0.00126   0.00155  -0.00042
  30        2PX         0.00242  -0.00992  -0.00783  -0.00646   0.00362
  31        2PY        -0.01756   0.02585  -0.00808  -0.00217  -0.00055
  32        2PZ        -0.01030  -0.00845  -0.01643  -0.00136  -0.00129
  33        3S         -0.03985   0.02331   0.01657  -0.00022  -0.00228
  34        3PX         0.00570  -0.01385  -0.01811  -0.00455   0.00438
  35        3PY        -0.02157   0.02615  -0.01233  -0.00183  -0.00046
  36        3PZ        -0.01973  -0.00952  -0.02297  -0.00042  -0.00126
                          21        22        23        24        25
  21        2PX         0.24453
  22        2PY        -0.01723   0.26443
  23        2PZ        -0.01551  -0.00896   0.25745
  24        3S         -0.03192  -0.01843  -0.02316   0.67515
  25        3PX         0.28060  -0.01947  -0.01791  -0.02985   0.32250
  26        3PY        -0.01947   0.30308  -0.01034  -0.01723  -0.02191
  27        3PZ        -0.01790  -0.01034   0.29943  -0.02166  -0.02061
  28 4   F  1S          0.00646  -0.00217  -0.00136  -0.00022   0.00455
  29        2S         -0.00362  -0.00055  -0.00129  -0.00228  -0.00438
  30        2PX         0.02768  -0.00370  -0.00035   0.03564   0.03189
  31        2PY         0.00370  -0.00282   0.00437   0.02004   0.00710
  32        2PZ         0.00035   0.00437  -0.01136   0.01475   0.00217
  33        3S         -0.03564   0.02004   0.01475  -0.00861  -0.04011
  34        3PX         0.03189  -0.00710  -0.00217   0.04011   0.03637
  35        3PY         0.00055  -0.00362   0.01314   0.02286   0.00386
  36        3PZ        -0.00308   0.01082  -0.01643   0.01657  -0.00163
                          26        27        28        29        30
  26        3PY         0.34780
  27        3PZ        -0.01190   0.34872
  28 4   F  1S         -0.00183  -0.00042   1.02879
  29        2S         -0.00046  -0.00126   0.03424   0.06691
  30        2PX        -0.00055   0.00308  -0.00969   0.01022   0.24453
  31        2PY        -0.00362   0.01082   0.00559  -0.00590   0.01723
  32        2PZ         0.01314  -0.01643   0.00557  -0.00595   0.01551
  33        3S          0.02286   0.01657  -0.24176   0.19197   0.03192
  34        3PX        -0.00386   0.00163  -0.00274   0.01089   0.28060
  35        3PY        -0.00453   0.02185   0.00158  -0.00629   0.01947
  36        3PZ         0.02185  -0.02297   0.00291  -0.00593   0.01790
                          31        32        33        34        35
  31        2PY         0.26443
  32        2PZ        -0.00896   0.25745
  33        3S         -0.01843  -0.02316   0.67515
  34        3PX         0.01947   0.01791   0.02985   0.32250
  35        3PY         0.30308  -0.01034  -0.01723   0.02191   0.34780
  36        3PZ        -0.01034   0.29943  -0.02166   0.02061  -0.01190
                          36
  36        3PZ         0.34872
    Full Mulliken population analysis:
                           1         2         3         4         5
   1 1   B  1S          2.01257
   2        2S          0.01819   0.12520
   3        2PX         0.00000   0.00000   0.12428
   4        2PY         0.00000   0.00000   0.00000   0.12428
   5        2PZ         0.00000   0.00000   0.00000   0.00000   0.21602
   6        3S         -0.02851   0.07981   0.00000   0.00000   0.00000
   7        3PX         0.00000   0.00000   0.00134  -0.00000   0.00000
   8        3PY         0.00000   0.00000  -0.00000   0.00134   0.00000
   9        3PZ         0.00000   0.00000   0.00000   0.00000   0.10728
  10 2   F  1S          0.00000   0.00001   0.00000  -0.00017  -0.00006
  11        2S         -0.00000  -0.00003   0.00000   0.00157   0.00036
  12        2PX         0.00000   0.00000   0.00113   0.00000   0.00000
  13        2PY        -0.00001   0.00635   0.00000   0.01815   0.00356
  14        2PZ        -0.00000   0.00089   0.00000   0.00368  -0.00005
  15        3S         -0.00038  -0.00318   0.00000   0.00818   0.00593
  16        3PX        -0.00000   0.00000   0.00804   0.00000   0.00000
  17        3PY        -0.00547   0.03826   0.00000   0.06738   0.01645
  18        3PZ        -0.00029   0.00454   0.00000   0.01607  -0.00285
  19 3   F  1S          0.00000   0.00001  -0.00013  -0.00004  -0.00006
  20        2S         -0.00000  -0.00003   0.00118   0.00039   0.00036
  21        2PX        -0.00001   0.00476   0.00858   0.00532   0.00267
  22        2PY        -0.00000   0.00159   0.00532   0.00007   0.00089
  23        2PZ        -0.00000   0.00089   0.00276   0.00092  -0.00005
  24        3S         -0.00038  -0.00318   0.00614   0.00205   0.00593
  25        3PX        -0.00410   0.02870   0.02914   0.02341   0.01234
  26        3PY        -0.00137   0.00957   0.02341  -0.00053   0.00411
  27        3PZ        -0.00029   0.00454   0.01205   0.00402  -0.00285
  28 4   F  1S          0.00000   0.00001  -0.00013  -0.00004  -0.00006
  29        2S         -0.00000  -0.00003   0.00118   0.00039   0.00036
  30        2PX        -0.00001   0.00476   0.00858   0.00532   0.00267
  31        2PY        -0.00000   0.00159   0.00532   0.00007   0.00089
  32        2PZ        -0.00000   0.00089   0.00276   0.00092  -0.00005
  33        3S         -0.00038  -0.00318   0.00614   0.00205   0.00593
  34        3PX        -0.00410   0.02870   0.02914   0.02341   0.01234
  35        3PY        -0.00137   0.00957   0.02341  -0.00053   0.00411
  36        3PZ        -0.00029   0.00454   0.01205   0.00402  -0.00285
                           6         7         8         9        10
   6        3S          0.54435
   7        3PX         0.00000   0.04797
   8        3PY         0.00000   0.00000   0.04797
   9        3PZ         0.00000   0.00000   0.00000   0.20438
  10 2   F  1S          0.00087   0.00000   0.00076  -0.00003   2.05828
  11        2S         -0.00085   0.00000   0.00055   0.00072   0.01451
  12        2PX         0.00000   0.00654   0.00000   0.00000   0.00000
  13        2PY         0.00076   0.00000  -0.00134   0.00078   0.00000
  14        2PZ        -0.00133   0.00000   0.00114   0.00181   0.00000
  15        3S         -0.03493  -0.00000  -0.01323   0.00918  -0.08946
  16        3PX         0.00000   0.03807   0.00000   0.00000   0.00000
  17        3PY         0.00228   0.00000  -0.00423   0.00407   0.00000
  18        3PZ        -0.01123   0.00000   0.00513   0.00566   0.00000
  19 3   F  1S          0.00087   0.00057   0.00019  -0.00003   0.00000
  20        2S         -0.00085   0.00041   0.00014   0.00072   0.00000
  21        2PX         0.00057  -0.00038   0.00101   0.00059   0.00000
  22        2PY         0.00019   0.00101   0.00356   0.00020   0.00000
  23        2PZ        -0.00133   0.00085   0.00028   0.00181   0.00000
  24        3S         -0.03493  -0.00992  -0.00331   0.00918  -0.00000
  25        3PX         0.00171   0.00171   0.00464   0.00305   0.00000
  26        3PY         0.00057   0.00464   0.02286   0.00102   0.00000
  27        3PZ        -0.01123   0.00385   0.00128   0.00566   0.00000
  28 4   F  1S          0.00087   0.00057   0.00019  -0.00003   0.00000
  29        2S         -0.00085   0.00041   0.00014   0.00072   0.00000
  30        2PX         0.00057  -0.00038   0.00101   0.00059   0.00000
  31        2PY         0.00019   0.00101   0.00356   0.00020   0.00000
  32        2PZ        -0.00133   0.00085   0.00028   0.00181   0.00000
  33        3S         -0.03493  -0.00992  -0.00331   0.00918  -0.00000
  34        3PX         0.00171   0.00171   0.00464   0.00305   0.00000
  35        3PY         0.00057   0.00464   0.02286   0.00102   0.00000
  36        3PZ        -0.01123   0.00385   0.00128   0.00566   0.00000
                          11        12        13        14        15
  11        2S          0.13513
  12        2PX         0.00000   0.54856
  13        2PY         0.00000  -0.00000   0.46993
  14        2PZ         0.00000   0.00000   0.00000   0.54154
  15        3S          0.28400   0.00000   0.00000   0.00000   1.37245
  16        3PX         0.00000   0.30616   0.00000   0.00000   0.00000
  17        3PY         0.00000   0.00000   0.26290   0.00000   0.00000
  18        3PZ         0.00000   0.00000   0.00000   0.30590   0.00000
  19 3   F  1S          0.00000   0.00000   0.00000   0.00000  -0.00000
  20        2S         -0.00000  -0.00000  -0.00000   0.00000  -0.00000
  21        2PX        -0.00000  -0.00000  -0.00000   0.00000   0.00000
  22        2PY        -0.00000  -0.00000  -0.00000   0.00000  -0.00006
  23        2PZ         0.00000   0.00000   0.00000  -0.00000   0.00000
  24        3S         -0.00000  -0.00003  -0.00003   0.00000   0.00004
  25        3PX        -0.00001  -0.00001  -0.00005   0.00000   0.00013
  26        3PY        -0.00001  -0.00008  -0.00012   0.00000  -0.00256
  27        3PZ         0.00000   0.00000   0.00000  -0.00000   0.00000
  28 4   F  1S          0.00000   0.00000   0.00000   0.00000  -0.00000
  29        2S         -0.00000  -0.00000  -0.00000   0.00000  -0.00000
  30        2PX        -0.00000  -0.00000  -0.00000   0.00000   0.00000
  31        2PY        -0.00000  -0.00000  -0.00000   0.00000  -0.00006
  32        2PZ         0.00000   0.00000   0.00000  -0.00000   0.00000
  33        3S         -0.00000  -0.00003  -0.00003   0.00000   0.00004
  34        3PX        -0.00001  -0.00001  -0.00005   0.00000   0.00013
  35        3PY        -0.00001  -0.00008  -0.00012   0.00000  -0.00256
  36        3PZ         0.00000   0.00000   0.00000  -0.00000   0.00000
                          16        17        18        19        20
  16        3PX         0.71710
  17        3PY         0.00000   0.61798
  18        3PZ         0.00000   0.00000   0.72801
  19 3   F  1S          0.00000   0.00000   0.00000   2.05828
  20        2S         -0.00000  -0.00002   0.00000   0.01451   0.13513
  21        2PX        -0.00000  -0.00003   0.00000   0.00000   0.00000
  22        2PY        -0.00007  -0.00016   0.00000   0.00000   0.00000
  23        2PZ         0.00000   0.00000  -0.00000   0.00000   0.00000
  24        3S         -0.00134  -0.00108   0.00000  -0.08946   0.28400
  25        3PX        -0.00017  -0.00102   0.00000   0.00000   0.00000
  26        3PY        -0.00194  -0.00330   0.00000   0.00000   0.00000
  27        3PZ         0.00000   0.00000  -0.00009   0.00000   0.00000
  28 4   F  1S          0.00000   0.00000   0.00000   0.00000   0.00000
  29        2S         -0.00000  -0.00002   0.00000   0.00000  -0.00000
  30        2PX        -0.00000  -0.00003   0.00000   0.00000  -0.00000
  31        2PY        -0.00007  -0.00016   0.00000  -0.00000  -0.00000
  32        2PZ         0.00000   0.00000  -0.00000   0.00000   0.00000
  33        3S         -0.00134  -0.00108   0.00000  -0.00000  -0.00000
  34        3PX        -0.00017  -0.00102   0.00000   0.00000  -0.00002
  35        3PY        -0.00194  -0.00330   0.00000  -0.00000   0.00000
  36        3PZ         0.00000   0.00000  -0.00009   0.00000   0.00000
                          21        22        23        24        25
  21        2PX         0.48959
  22        2PY         0.00000   0.52890
  23        2PZ         0.00000   0.00000   0.54154
  24        3S          0.00000   0.00000   0.00000   1.37245
  25        3PX         0.27371   0.00000   0.00000   0.00000   0.64276
  26        3PY         0.00000   0.29534   0.00000   0.00000   0.00000
  27        3PZ         0.00000   0.00000   0.30590   0.00000   0.00000
  28 4   F  1S          0.00000  -0.00000   0.00000  -0.00000   0.00000
  29        2S         -0.00000   0.00000   0.00000  -0.00000  -0.00002
  30        2PX        -0.00000  -0.00000   0.00000  -0.00006  -0.00026
  31        2PY         0.00000  -0.00000   0.00000   0.00000   0.00000
  32        2PZ         0.00000   0.00000  -0.00000   0.00000   0.00000
  33        3S         -0.00006   0.00000   0.00000   0.00004  -0.00243
  34        3PX        -0.00026   0.00000   0.00000  -0.00243  -0.00635
  35        3PY        -0.00000  -0.00000   0.00000   0.00000   0.00000
  36        3PZ         0.00000   0.00000  -0.00000   0.00000   0.00000
                          26        27        28        29        30
  26        3PY         0.69232
  27        3PZ         0.00000   0.72801
  28 4   F  1S         -0.00000   0.00000   2.05828
  29        2S          0.00000   0.00000   0.01451   0.13513
  30        2PX        -0.00000   0.00000   0.00000   0.00000   0.48959
  31        2PY        -0.00000   0.00000   0.00000   0.00000   0.00000
  32        2PZ         0.00000  -0.00000   0.00000   0.00000   0.00000
  33        3S         -0.00000   0.00000  -0.08946   0.28400   0.00000
  34        3PX        -0.00000   0.00000   0.00000   0.00000   0.27371
  35        3PY        -0.00008   0.00000   0.00000   0.00000  -0.00000
  36        3PZ         0.00000  -0.00009   0.00000   0.00000   0.00000
                          31        32        33        34        35
  31        2PY         0.52890
  32        2PZ         0.00000   0.54154
  33        3S          0.00000   0.00000   1.37245
  34        3PX         0.00000   0.00000   0.00000   0.64276
  35        3PY         0.29534   0.00000   0.00000   0.00000   0.69232
  36        3PZ         0.00000   0.30590   0.00000   0.00000   0.00000
                          36
  36        3PZ         0.72801
     Gross orbital populations:
                         Total     Alpha     Beta      Spin
   1 1   B  1S          1.98379   0.99314   0.99065   0.00248
   2        2S          0.36371   0.20491   0.15880   0.04611
   3        2PX         0.31167   0.15783   0.15385   0.00398
   4        2PY         0.31167   0.15783   0.15385   0.00398
   5        2PZ         0.39337   0.33553   0.05784   0.27769
   6        3S          0.46236   0.41058   0.05178   0.35879
   7        3PX         0.09939   0.05007   0.04932   0.00075
   8        3PY         0.09939   0.05007   0.04932   0.00075
   9        3PZ         0.37821   0.29667   0.08155   0.21512
  10 2   F  1S          1.98471   0.99242   0.99229   0.00013
  11        2S          0.43592   0.21946   0.21646   0.00300
  12        2PX         0.86212   0.43069   0.43144  -0.00075
  13        2PY         0.76068   0.38071   0.37996   0.00075
  14        2PZ         0.85358   0.44432   0.40926   0.03506
  15        3S          1.53369   0.76605   0.76764  -0.00159
  16        3PX         1.06232   0.52961   0.53270  -0.00309
  17        3PY         0.98839   0.49224   0.49615  -0.00392
  18        3PZ         1.05074   0.52562   0.52511   0.00051
  19 3   F  1S          1.98471   0.99242   0.99229   0.00013
  20        2S          0.43592   0.21946   0.21646   0.00300
  21        2PX         0.78604   0.39321   0.39283   0.00038
  22        2PY         0.83676   0.41819   0.41857  -0.00037
  23        2PZ         0.85358   0.44432   0.40926   0.03506
  24        3S          1.53369   0.76605   0.76764  -0.00159
  25        3PX         1.00687   0.50158   0.50529  -0.00371
  26        3PY         1.04384   0.52027   0.52356  -0.00329
  27        3PZ         1.05074   0.52562   0.52511   0.00051
  28 4   F  1S          1.98471   0.99242   0.99229   0.00013
  29        2S          0.43592   0.21946   0.21646   0.00300
  30        2PX         0.78604   0.39321   0.39283   0.00038
  31        2PY         0.83676   0.41819   0.41857  -0.00037
  32        2PZ         0.85358   0.44432   0.40926   0.03506
  33        3S          1.53369   0.76605   0.76764  -0.00159
  34        3PX         1.00687   0.50158   0.50529  -0.00371
  35        3PY         1.04384   0.52027   0.52356  -0.00329
  36        3PZ         1.05074   0.52562   0.52511   0.00051
          Condensed to atoms (all electrons):
               1          2          3          4
     1  B    3.805906   0.199223   0.199223   0.199223
     2  F    0.199223   9.356989  -0.012035  -0.012035
     3  F    0.199223  -0.012035   9.356989  -0.012035
     4  F    0.199223  -0.012035  -0.012035   9.356989
          Atomic-Atomic Spin Densities.
               1          2          3          4
     1  B    1.141572  -0.077303  -0.077303  -0.077303
     2  F   -0.077303   0.105173   0.001121   0.001121
     3  F   -0.077303   0.001121   0.105173   0.001121
     4  F   -0.077303   0.001121   0.001121   0.105173
 Mulliken charges and spin densities:
               1          2
     1  B    0.596425   0.909663
     2  F   -0.532142   0.030112
     3  F   -0.532142   0.030112
     4  F   -0.532142   0.030112
 Sum of Mulliken charges =  -1.00000   1.00000
 Mulliken charges and spin densities with hydrogens summed into heavy atoms:
               1          2
     1  B    0.596425   0.909663
     2  F   -0.532142   0.030112
     3  F   -0.532142   0.030112
     4  F   -0.532142   0.030112
 Electronic spatial extent (au):  <R**2>=            227.3104
 Charge=             -1.0000 electrons
 Dipole moment (field-independent basis, Debye):
    X=              0.0000    Y=             -0.0000    Z=             -0.4156  Tot=              0.4156
 Quadrupole moment (field-independent basis, Debye-Ang):
   XX=            -26.3201   YY=            -26.3201   ZZ=            -21.8895
   XY=              0.0000   XZ=             -0.0000   YZ=              0.0000
 Traceless Quadrupole moment (field-independent basis, Debye-Ang):
   XX=             -1.4769   YY=             -1.4769   ZZ=              2.9537
   XY=              0.0000   XZ=             -0.0000   YZ=              0.0000
 Octapole moment (field-independent basis, Debye-Ang**2):
  XXX=              0.0000  YYY=             -4.4731  ZZZ=             -8.2910  XYY=              0.0000
  XXY=              4.4731  XXZ=             -1.3726  XZZ=              0.0000  YZZ=             -0.0000
  YYZ=             -1.3726  XYZ=             -0.0000
 Hexadecapole moment (field-independent basis, Debye-Ang**3):
 XXXX=            -98.6074 YYYY=            -98.6074 ZZZZ=            -28.8234 XXXY=              0.0000
 XXXZ=             -0.0000 YYYX=              0.0000 YYYZ=              0.2190 ZZZX=             -0.0000
 ZZZY=             -0.0000 XXYY=            -32.8691 XXZZ=            -19.4023 YYZZ=            -19.4023
 XXYZ=             -0.2190 YYXZ=             -0.0000 ZZXY=              0.0000
 N-N= 1.070757036189D+02 E-N=-9.930200490781D+02  KE= 3.205788585543D+02
 Symmetry A'   KE= 2.145023432207D+02
 Symmetry A"   KE= 1.060765153336D+02
 Symmetry A'   SP= 1.000000000000D+00
 Symmetry A"   SP= 7.423068100953D-15
 Orbital energies and kinetic energies (alpha):
                                 1                 2
   1         (A1)--O         -25.858971         36.896686
   2         (E)--O          -25.858098         36.897740
   3         (E)--O          -25.858098         36.897740
   4         (A1)--O          -7.385610         10.782435
   5         (A1)--O          -1.325729          3.590892
   6         (E)--O           -1.275759          3.886921
   7         (E)--O           -1.275759          3.886921
   8         (A1)--O          -0.513066          2.772956
   9         (E)--O           -0.437811          2.749082
  10         (E)--O           -0.437811          2.749082
  11         (A1)--O          -0.428053          2.483280
  12         (E)--O           -0.361149          3.097964
  13         (E)--O           -0.361149          3.097964
  14         (E)--O           -0.327238          3.162928
  15         (E)--O           -0.327238          3.162928
  16         (A2)--O          -0.310900          3.281643
  17         (A1)--O          -0.033237          1.728652
  18         (E)--V            0.612100          1.443848
  19         (E)--V            0.612100          1.443848
  20         (A1)--V           0.690230          1.984377
  21         (A1)--V           0.863936          1.777384
  22         (E)--V            1.033554          2.768663
  23         (E)--V            1.033554          2.768663
  24         (A1)--V           1.170950          2.984346
  25         (E)--V            2.443578          6.549945
  26         (E)--V            2.443578          6.549945
  27         (A1)--V           2.620600          6.631709
  28         (A2)--V           2.622472          6.623477
  29         (E)--V            2.627570          6.638836
  30         (E)--V            2.627570          6.638836
  31         (A1)--V           2.698448          6.553307
  32         (E)--V            2.777731          6.765976
  33         (E)--V            2.777731          6.765976
  34         (E)--V            4.113198          8.647446
  35         (E)--V            4.113198          8.647446
  36         (A1)--V           4.585818          8.848858
 Orbital energies and kinetic energies (beta):
                                 1                 2
   1         (A1)--O         -25.854934         36.900493
   2         (E)--O          -25.854065         36.901488
   3         (E)--O          -25.854065         36.901488
   4         (A1)--O          -7.366925         10.792096
   5         (A1)--O          -1.313646          3.580795
   6         (E)--O           -1.264338          3.869936
   7         (E)--O           -1.264338          3.869936
   8         (A1)--O          -0.497139          2.796266
   9         (E)--O           -0.426969          2.742437
  10         (E)--O           -0.426969          2.742437
  11         (A1)--O          -0.382540          2.659833
  12         (E)--O           -0.339196          3.056138
  13         (E)--O           -0.339196          3.056138
  14         (E)--O           -0.321560          3.153323
  15         (E)--O           -0.321560          3.153323
  16         (A2)--O          -0.309608          3.276915
  17         (A1)--V           0.438497          1.233377
  18         (E)--V            0.653862          1.383529
  19         (E)--V            0.653862          1.383529
  20         (A1)--V           0.696211          2.018556
  21         (A1)--V           0.962887          1.998009
  22         (E)--V            1.060682          2.834534
  23         (E)--V            1.060682          2.834534
  24         (A1)--V           1.195910          2.964889
  25         (E)--V            2.454320          6.575321
  26         (E)--V            2.454320          6.575321
  27         (A2)--V           2.624204          6.628205
  28         (A1)--V           2.633081          6.652079
  29         (E)--V            2.637376          6.668982
  30         (E)--V            2.637376          6.668982
  31         (A1)--V           2.712146          6.584516
  32         (E)--V            2.780804          6.770574
  33         (E)--V            2.780804          6.770574
  34         (E)--V            4.123660          8.653088
  35         (E)--V            4.123660          8.653088
  36         (A1)--V           4.593842          8.853971
 Total kinetic energy from orbitals= 3.205788585543D+02
                          Isotropic Fermi Contact Couplings
        Atom                 a.u.       MegaHertz       Gauss      10(-4) cm-1
     1  B(11)              0.33995     487.60745     173.99046     162.64834
     2  F(19)              0.09749     410.18088     146.36274     136.82161
     3  F(19)              0.09749     410.18088     146.36274     136.82161
     4  F(19)              0.09749     410.18088     146.36274     136.82161
 --------------------------------------------------------
       Center         ----  Spin Dipole Couplings  ----
                      3XX-RR        3YY-RR        3ZZ-RR
 --------------------------------------------------------
     1   Atom       -0.163631     -0.163631      0.327261
     2   Atom       -0.228523     -0.169522      0.398045
     3   Atom       -0.184272     -0.213773      0.398045
     4   Atom       -0.184272     -0.213773      0.398045
 --------------------------------------------------------
                        XY            XZ            YZ
 --------------------------------------------------------
     1   Atom       -0.000000      0.000000      0.000000
     2   Atom        0.000000     -0.000000     -0.167025
     3   Atom        0.025548      0.144648      0.083513
     4   Atom       -0.025548     -0.144648      0.083513
 --------------------------------------------------------


 ---------------------------------------------------------------------------------
              Anisotropic Spin Dipole Couplings in Principal Axis System
 ---------------------------------------------------------------------------------

       Atom             a.u.   MegaHertz   Gauss  10(-4) cm-1        Axes

              Baa    -0.1636   -28.016    -9.997    -9.345  0.8083  0.5887 -0.0000
     1 B(11)  Bbb    -0.1636   -28.016    -9.997    -9.345 -0.5887  0.8083 -0.0000
              Bcc     0.3273    56.032    19.994    18.690  0.0000  0.0000  1.0000
 
              Baa    -0.2285  -114.770   -40.953   -38.283  1.0000 -0.0000  0.0000
     2 F(19)  Bbb    -0.2150  -107.992   -38.534   -36.022  0.0000  0.9648  0.2629
              Bcc     0.4435   222.762    79.487    74.305 -0.0000 -0.2629  0.9648
 
              Baa    -0.2285  -114.770   -40.953   -38.283 -0.5000  0.8660  0.0000
     3 F(19)  Bbb    -0.2150  -107.992   -38.534   -36.022  0.8356  0.4824 -0.2629
              Bcc     0.4435   222.762    79.487    74.305  0.2276  0.1314  0.9648
 
              Baa    -0.2285  -114.770   -40.953   -38.283  0.5000  0.8660  0.0000
     4 F(19)  Bbb    -0.2150  -107.992   -38.534   -36.022  0.8356 -0.4824  0.2629
              Bcc     0.4435   222.762    79.487    74.305 -0.2276  0.1314  0.9648
 

 ---------------------------------------------------------------------------------

 1\1\GINC-IISERK51\SP\UHF\3-21G\B1F3(1-,2)\GAUSSIAN\17-Jul-2025\0\\# hf
 /3-21g pop=full geom=connectivity\\BF3 pyramid sp\\-1,2\B,0,0.,0.,0.39
 448\F,0,0.,1.32238,-0.073052\F,0,-1.145215,-0.66119,-0.073052\F,0,1.14
 5215,-0.66119,-0.073052\\Version=EM64L-G16RevB.01\State=2-A1\HF=-321.4
 012536\S2=0.751573\S2-1=0.\S2A=0.750002\RMSD=4.886e-09\Dipole=0.,0.,-0
 .163498\Quadrupole=-1.098012,-1.098012,2.196024,0.,0.,0.\PG=C03V [C3(B
 1),3SGV(F1)]\\@


 Cherishing children is the mark of a civilized society.
 -- Joan Ganz Cooney
 Job cpu time:       0 days  0 hours  0 minutes  0.5 seconds.
 Elapsed time:       0 days  0 hours  0 minutes  0.6 seconds.
 File lengths (MBytes):  RWF=      6 Int=      0 D2E=      0 Chk=      1 Scr=      1
 Normal termination of Gaussian 16 at Thu Jul 17 18:01:18 2025.
