%chk=BF3_pyramid_sp.chk
# hf/3-21g pop=full geom=connectivity

BF3 pyramid sp

0 1
 B                  0.00000000    0.00000000    0.39448000
 F                  0.00000000    1.32238000   -0.07305200
 F                 -1.14521500   -0.66119000   -0.07305200
 F                  1.14521500   -0.66119000   -0.07305200

 1 2 1.0 3 1.0 4 1.0
 2
 3
 4

