%chk=BCl4_ion_opt.chk
# opt freq hf/3-21g pop=full geom=connectivity

BCl4- opt

-1 1
 B                  0.19125683    0.58469942    0.00000000
 Cl                 0.81460095    1.46621775    1.52684889
 Cl                 0.81456877   -1.17836105    0.00000000
 Cl                 0.81460095    1.46621775   -1.52684889
 Cl                -1.67874317    0.58472246    0.00000000

 1 2 1.0 3 1.0 4 1.0 5 1.0
 2
 3
 4
 5

