 Entering Gaussian System, Link 0=g16
 Input=/home/gaussian/Summer_Internship/Acid_Base_adduct/Acid/AlH3/MX3-/AlH3_ion_pyramid_sp.com
 Output=/home/gaussian/Summer_Internship/Acid_Base_adduct/Acid/AlH3/MX3-/AlH3_ion_pyramid_sp.log
 Initial command:
 /usr/local/g16/l1.exe "/home/gaussian/tmp/Gau-218679.inp" -scrdir="/home/gaussian/tmp/"
 Entering Link 1 = /usr/local/g16/l1.exe PID=    218682.
  
 Copyright (c) 1988-2017, Gaussian, Inc.  All Rights Reserved.
  
 This is part of the Gaussian(R) 16 program.  It is based on
 the Gaussian(R) 09 system (copyright 2009, Gaussian, Inc.),
 the Gaussian(R) 03 system (copyright 2003, Gaussian, Inc.),
 the Gaussian(R) 98 system (copyright 1998, Gaussian, Inc.),
 the Gaussian(R) 94 system (copyright 1995, Gaussian, Inc.),
 the Gaussian 92(TM) system (copyright 1992, Gaussian, Inc.),
 the Gaussian 90(TM) system (copyright 1990, Gaussian, Inc.),
 the Gaussian 88(TM) system (copyright 1988, Gaussian, Inc.),
 the Gaussian 86(TM) system (copyright 1986, Carnegie Mellon
 University), and the Gaussian 82(TM) system (copyright 1983,
 Carnegie Mellon University). Gaussian is a federally registered
 trademark of Gaussian, Inc.
  
 This software contains proprietary and confidential information,
 including trade secrets, belonging to Gaussian, Inc.
  
 This software is provided under written license and may be
 used, copied, transmitted, or stored only in accord with that
 written license.
  
 The following legend is applicable only to US Government
 contracts under FAR:
  
                    RESTRICTED RIGHTS LEGEND
  
 Use, reproduction and disclosure by the US Government is
 subject to restrictions as set forth in subparagraphs (a)
 and (c) of the Commercial Computer Software - Restricted
 Rights clause in FAR 52.227-19.
  
 Gaussian, Inc.
 340 Quinnipiac St., Bldg. 40, Wallingford CT 06492
  
  
 ---------------------------------------------------------------
 Warning -- This program may not be used in any manner that
 competes with the business of Gaussian, Inc. or will provide
 assistance to any competitor of Gaussian, Inc.  The licensee
 of this program is prohibited from giving any competitor of
 Gaussian, Inc. access to this program.  By using this program,
 the user acknowledges that Gaussian, Inc. is engaged in the
 business of creating and licensing software in the field of
 computational chemistry and represents and warrants to the
 licensee that it is not a competitor of Gaussian, Inc. and that
 it will not use this program in any manner prohibited above.
 ---------------------------------------------------------------
  

 Cite this work as:
 Gaussian 16, Revision B.01,
 M. J. Frisch, G. W. Trucks, H. B. Schlegel, G. E. Scuseria, 
 M. A. Robb, J. R. Cheeseman, G. Scalmani, V. Barone, 
 G. A. Petersson, H. Nakatsuji, X. Li, M. Caricato, A. V. Marenich, 
 J. Bloino, B. G. Janesko, R. Gomperts, B. Mennucci, H. P. Hratchian, 
 J. V. Ortiz, A. F. Izmaylov, J. L. Sonnenberg, D. Williams-Young, 
 F. Ding, F. Lipparini, F. Egidi, J. Goings, B. Peng, A. Petrone, 
 T. Henderson, D. Ranasinghe, V. G. Zakrzewski, J. Gao, N. Rega, 
 G. Zheng, W. Liang, M. Hada, M. Ehara, K. Toyota, R. Fukuda, 
 J. Hasegawa, M. Ishida, T. Nakajima, Y. Honda, O. Kitao, H. Nakai, 
 T. Vreven, K. Throssell, J. A. Montgomery, Jr., J. E. Peralta, 
 F. Ogliaro, M. J. Bearpark, J. J. Heyd, E. N. Brothers, K. N. Kudin, 
 V. N. Staroverov, T. A. Keith, R. Kobayashi, J. Normand, 
 K. Raghavachari, A. P. Rendell, J. C. Burant, S. S. Iyengar, 
 J. Tomasi, M. Cossi, J. M. Millam, M. Klene, C. Adamo, R. Cammi, 
 J. W. Ochterski, R. L. Martin, K. Morokuma, O. Farkas, 
 J. B. Foresman, and D. J. Fox, Gaussian, Inc., Wallingford CT, 2016.
 
 ******************************************
 Gaussian 16:  EM64L-G16RevB.01 20-Dec-2017
                17-Jul-2025 
 ******************************************
 %chk=AlH3_ion_pyramid_sp.chk
 -------------------------------------
 # hf/3-21g pop=full geom=connectivity
 -------------------------------------
 1/38=1,57=2,172=1/1;
 2/12=2,17=6,18=5,40=1/2;
 3/5=5,11=9,25=1,30=1/1,2,3;
 4//1;
 5/5=2,38=5/2;
 6/7=3,28=1/1;
 99/5=1,9=1/99;
 -------------------
 Title Card Required
 -------------------
 Symbolic Z-matrix:
 Charge = -1 Multiplicity = 2
 Al                    0.        0.        0.09688 
 H                     0.        1.46135  -0.41979 
 H                    -1.26557  -0.73068  -0.41979 
 H                     1.26557  -0.73068  -0.41979 
 
                          Input orientation:                          
 ---------------------------------------------------------------------
 Center     Atomic      Atomic             Coordinates (Angstroms)
 Number     Number       Type             X           Y           Z
 ---------------------------------------------------------------------
      1         13           0        0.000000    0.000000    0.096875
      2          1           0        0.000000    1.461354   -0.419792
      3          1           0       -1.265570   -0.730677   -0.419792
      4          1           0        1.265570   -0.730677   -0.419792
 ---------------------------------------------------------------------
                    Distance matrix (angstroms):
                    1          2          3          4
     1  Al   0.000000
     2  H    1.550000   0.000000
     3  H    1.550000   2.531140   0.000000
     4  H    1.550000   2.531140   2.531140   0.000000
 Stoichiometry    AlH3(1-,2)
 Framework group  C3V[C3(Al),3SGV(H)]
 Deg. of freedom     2
 Full point group                 C3V     NOp   6
 Largest Abelian subgroup         CS      NOp   2
 Largest concise Abelian subgroup CS      NOp   2
                         Standard orientation:                         
 ---------------------------------------------------------------------
 Center     Atomic      Atomic             Coordinates (Angstroms)
 Number     Number       Type             X           Y           Z
 ---------------------------------------------------------------------
      1         13           0        0.000000    0.000000    0.096875
      2          1           0        0.000000    1.461354   -0.419792
      3          1           0       -1.265570   -0.730677   -0.419792
      4          1           0        1.265570   -0.730677   -0.419792
 ---------------------------------------------------------------------
 Rotational constants (GHZ):         127.8090496         127.8090496          78.2708295
 Standard basis: 3-21G (6D, 7F)
 There are    14 symmetry adapted cartesian basis functions of A'  symmetry.
 There are     5 symmetry adapted cartesian basis functions of A"  symmetry.
 There are    14 symmetry adapted basis functions of A'  symmetry.
 There are     5 symmetry adapted basis functions of A"  symmetry.
    19 basis functions,    36 primitive gaussians,    19 cartesian basis functions
     9 alpha electrons        8 beta electrons
       nuclear repulsion energy        13.9419810001 Hartrees.
 NAtoms=    4 NActive=    4 NUniq=    2 SFac= 4.00D+00 NAtFMM=   60 NAOKFM=F Big=F
 Integral buffers will be    131072 words long.
 Raffenetti 2 integral format.
 Two-electron integral symmetry is turned on.
 One-electron integrals computed using PRISM.
 NBasis=    19 RedAO= T EigKep=  6.62D-02  NBF=    14     5
 NBsUse=    19 1.00D-06 EigRej= -1.00D+00 NBFU=    14     5
 ExpMin= 6.39D-02 ExpMax= 7.76D+02 ExpMxC= 7.76D+02 IAcc=3 IRadAn=         5 AccDes= 0.00D+00
 Harris functional with IExCor=  205 and IRadAn=       5 diagonalized for initial guess.
 HarFok:  IExCor=  205 AccDes= 0.00D+00 IRadAn=         5 IDoV= 1 UseB2=F ITyADJ=14
 ICtDFT=  3500011 ScaDFX=  1.000000  1.000000  1.000000  1.000000
 FoFCou: FMM=F IPFlag=           0 FMFlag=      100000 FMFlg1=           0
         NFxFlg=           0 DoJE=T BraDBF=F KetDBF=T FulRan=T
         wScrn=  0.000000 ICntrl=       500 IOpCl=  0 I1Cent=   200000004 NGrid=           0
         NMat0=    1 NMatS0=      1 NMatT0=    0 NMatD0=    1 NMtDS0=    0 NMtDT0=    0
 Petite list used in FoFCou.
 Initial guess orbital symmetries:
 Alpha Orbitals:
       Occupied  (A1) (A1) (E) (E) (A1) (A1) (E) (E) (A1)
       Virtual   (E) (E) (A1) (A1) (E) (E) (A1) (A1) (E) (E)
 Beta  Orbitals:
       Occupied  (A1) (A1) (E) (E) (A1) (A1) (E) (E)
       Virtual   (A1) (E) (E) (A1) (A1) (E) (E) (A1) (A1) (E) (E)
 The electronic state of the initial guess is 2-A1.
 Initial guess <Sx>= 0.0000 <Sy>= 0.0000 <Sz>= 0.5000 <S**2>= 0.7500 S= 0.5000
 Keep R1 and R2 ints in memory in symmetry-blocked form, NReq=824583.
 Requested convergence on RMS density matrix=1.00D-08 within 128 cycles.
 Requested convergence on MAX density matrix=1.00D-06.
 Requested convergence on             energy=1.00D-06.
 No special actions if energy rises.
 SCF Done:  E(UHF) =  -242.265228791     A.U. after   12 cycles
            NFock= 12  Conv=0.39D-08     -V/T= 1.9997
 <Sx>= 0.0000 <Sy>= 0.0000 <Sz>= 0.5000 <S**2>= 0.7539 S= 0.5019
 <L.S>= 0.000000000000E+00
 Annihilation of the first spin contaminant:
 S**2 before annihilation     0.7539,   after     0.7500

 **********************************************************************

            Population analysis using the SCF Density.

 **********************************************************************

 Orbital symmetries:
 Alpha Orbitals:
       Occupied  (A1) (A1) (A1) (E) (E) (A1) (E) (E) (A1)
       Virtual   (E) (E) (A1) (A1) (E) (E) (A1) (A1) (E) (E)
 Beta  Orbitals:
       Occupied  (A1) (A1) (E) (E) (A1) (A1) (E) (E)
       Virtual   (A1) (E) (E) (A1) (A1) (E) (E) (A1) (A1) (E) (E)
 The electronic state is 2-A1.
 Alpha  occ. eigenvalues --  -57.78216  -4.59877  -2.90527  -2.90098  -2.90098
 Alpha  occ. eigenvalues --   -0.36230  -0.19002  -0.19002  -0.02738
 Alpha virt. eigenvalues --    0.34966   0.34966   0.42627   0.51622   0.61151
 Alpha virt. eigenvalues --    0.61151   0.61597   1.59475   1.61144   1.61144
  Beta  occ. eigenvalues --  -57.77904  -4.59337  -2.89838  -2.89838  -2.89289
  Beta  occ. eigenvalues --   -0.33339  -0.18751  -0.18751
  Beta virt. eigenvalues --    0.26592   0.37012   0.37012   0.44632   0.56010
  Beta virt. eigenvalues --    0.63016   0.63016   0.64691   1.59472   1.61148
  Beta virt. eigenvalues --    1.61148
     Alpha Molecular Orbital Coefficients:
                           1         2         3         4         5
                        (A1)--O   (A1)--O   (A1)--O   (E)--O    (E)--O
     Eigenvalues --   -57.78216  -4.59877  -2.90527  -2.90098  -2.90098
   1 1   Al 1S          0.98853  -0.28416   0.00115  -0.00000   0.00000
   2        2S          0.04414   1.01072  -0.00397   0.00000   0.00000
   3        2PX         0.00000   0.00000   0.00000   0.00000   0.97804
   4        2PY        -0.00000   0.00000   0.00000   0.97804   0.00000
   5        2PZ        -0.00006   0.00468   0.97887  -0.00000   0.00000
   6        3S         -0.01112   0.09025  -0.00120   0.00000   0.00000
   7        3PX         0.00000   0.00000   0.00000   0.00000   0.08937
   8        3PY         0.00000   0.00000   0.00000   0.08937   0.00000
   9        3PZ         0.00040  -0.00142   0.08584  -0.00000   0.00000
  10        4S          0.00330  -0.02888  -0.00565   0.00000   0.00000
  11        4PX         0.00000   0.00000   0.00000   0.00000  -0.02603
  12        4PY         0.00000  -0.00000  -0.00000  -0.02603   0.00000
  13        4PZ         0.00029  -0.00155  -0.02778   0.00000   0.00000
  14 2   H  1S          0.00093  -0.00309   0.00107  -0.00428   0.00000
  15        2S          0.00046  -0.00260   0.00319  -0.00427   0.00000
  16 3   H  1S          0.00093  -0.00309   0.00107   0.00214   0.00370
  17        2S          0.00046  -0.00260   0.00319   0.00213   0.00369
  18 4   H  1S          0.00093  -0.00309   0.00107   0.00214  -0.00370
  19        2S          0.00046  -0.00260   0.00319   0.00213  -0.00369
                           6         7         8         9        10
                        (A1)--O   (E)--O    (E)--O    (A1)--O   (E)--V
     Eigenvalues --    -0.36230  -0.19002  -0.19002  -0.02738   0.34966
   1 1   Al 1S          0.04914   0.00000  -0.00000   0.01487   0.00000
   2        2S         -0.25297   0.00000   0.00000  -0.08492   0.00000
   3        2PX         0.00000   0.14412   0.00000   0.00000   0.00000
   4        2PY        -0.00000   0.00000  -0.14412   0.00000  -0.00691
   5        2PZ         0.02501   0.00000  -0.00000  -0.15803   0.00000
   6        3S          0.28981   0.00000  -0.00000   0.06943   0.00000
   7        3PX         0.00000  -0.23465   0.00000   0.00000   0.00000
   8        3PY         0.00000   0.00000   0.23465  -0.00000  -0.02006
   9        3PZ        -0.02622   0.00000   0.00000   0.30556  -0.00000
  10        4S          0.33179   0.00000   0.00000   0.48174  -0.00000
  11        4PX         0.00000  -0.15265   0.00000   0.00000   0.00000
  12        4PY        -0.00000   0.00000   0.15265  -0.00000   1.45040
  13        4PZ         0.00903   0.00000  -0.00000   0.60637   0.00000
  14 2   H  1S          0.13521   0.00000   0.22887  -0.05345  -0.07682
  15        2S          0.17052   0.00000   0.44365  -0.15965  -0.94044
  16 3   H  1S          0.13521   0.19821  -0.11443  -0.05345   0.03841
  17        2S          0.17052   0.38421  -0.22183  -0.15965   0.47022
  18 4   H  1S          0.13521  -0.19821  -0.11443  -0.05345   0.03841
  19        2S          0.17052  -0.38421  -0.22183  -0.15965   0.47022
                          11        12        13        14        15
                        (E)--V    (A1)--V   (A1)--V   (E)--V    (E)--V
     Eigenvalues --     0.34966   0.42627   0.51622   0.61151   0.61151
   1 1   Al 1S          0.00000  -0.01162   0.05792   0.00000  -0.00000
   2        2S          0.00000  -0.04063  -0.16657   0.00000   0.00000
   3        2PX        -0.00691   0.00000   0.00000  -0.32303   0.00000
   4        2PY         0.00000   0.00000   0.00000   0.00000  -0.32303
   5        2PZ         0.00000  -0.03984  -0.14619   0.00000  -0.00000
   6        3S          0.00000  -0.73587   1.45404   0.00000  -0.00000
   7        3PX        -0.02006   0.00000   0.00000   1.45888   0.00000
   8        3PY         0.00000  -0.00000  -0.00000   0.00000   1.45888
   9        3PZ         0.00000   0.16337   0.62678   0.00000   0.00000
  10        4S          0.00000   2.27302  -0.75512   0.00000  -0.00000
  11        4PX         1.45040   0.00000   0.00000  -0.53734   0.00000
  12        4PY         0.00000   0.00000  -0.00000   0.00000  -0.53734
  13        4PZ         0.00000  -0.90214  -0.79224   0.00000  -0.00000
  14 2   H  1S          0.00000  -0.06101  -0.03335   0.00000   0.01442
  15        2S          0.00000  -0.80759  -0.28271   0.00000  -0.64857
  16 3   H  1S          0.06653  -0.06101  -0.03335  -0.01249  -0.00721
  17        2S          0.81444  -0.80759  -0.28271   0.56168   0.32428
  18 4   H  1S         -0.06653  -0.06101  -0.03335   0.01249  -0.00721
  19        2S         -0.81444  -0.80759  -0.28271  -0.56168   0.32428
                          16        17        18        19
                        (A1)--V   (A1)--V   (E)--V    (E)--V
     Eigenvalues --     0.61597   1.59475   1.61144   1.61144
   1 1   Al 1S         -0.03374  -0.01556   0.00000   0.00000
   2        2S          0.12480   0.08994  -0.00000   0.00000
   3        2PX         0.00000   0.00000   0.00000   0.09522
   4        2PY         0.00000  -0.00000  -0.09522   0.00000
   5        2PZ        -0.27796  -0.03828   0.00000   0.00000
   6        3S         -0.69676  -0.02998   0.00000   0.00000
   7        3PX         0.00000   0.00000   0.00000  -0.13397
   8        3PY        -0.00000   0.00000   0.13397   0.00000
   9        3PZ         1.23321  -0.00068  -0.00000   0.00000
  10        4S         -0.55918   1.27784  -0.00000   0.00000
  11        4PX         0.00000   0.00000   0.00000   0.60217
  12        4PY         0.00000  -0.00000  -0.60217   0.00000
  13        4PZ        -0.50114  -0.39849   0.00000   0.00000
  14 2   H  1S          0.02709   0.80713  -1.13244   0.00000
  15        2S          0.64268  -1.15706   1.29443   0.00000
  16 3   H  1S          0.02709   0.80713   0.56622  -0.98072
  17        2S          0.64268  -1.15706  -0.64722   1.12101
  18 4   H  1S          0.02709   0.80713   0.56622   0.98072
  19        2S          0.64268  -1.15706  -0.64722  -1.12101
     Beta Molecular Orbital Coefficients:
                           1         2         3         4         5
                        (A1)--O   (A1)--O   (E)--O    (E)--O    (A1)--O
     Eigenvalues --   -57.77904  -4.59337  -2.89838  -2.89838  -2.89289
   1 1   Al 1S          0.98854  -0.28417   0.00000   0.00000   0.00016
   2        2S          0.04412   1.01084   0.00000  -0.00000  -0.00038
   3        2PX         0.00000   0.00000   0.97826   0.00000   0.00000
   4        2PY         0.00000   0.00000   0.00000   0.97826  -0.00000
   5        2PZ        -0.00006   0.00118   0.00000   0.00000   0.97868
   6        3S         -0.01111   0.09031   0.00000  -0.00000  -0.00029
   7        3PX         0.00000   0.00000   0.08854   0.00000   0.00000
   8        3PY        -0.00000   0.00000   0.00000   0.08854  -0.00000
   9        3PZ         0.00040  -0.00145   0.00000   0.00000   0.08678
  10        4S          0.00331  -0.02975   0.00000  -0.00000  -0.00715
  11        4PX         0.00000   0.00000  -0.02644   0.00000   0.00000
  12        4PY         0.00000  -0.00000   0.00000  -0.02644   0.00000
  13        4PZ         0.00028  -0.00159   0.00000  -0.00000  -0.02853
  14 2   H  1S          0.00093  -0.00314   0.00000  -0.00415   0.00092
  15        2S          0.00046  -0.00235   0.00000  -0.00376   0.00358
  16 3   H  1S          0.00093  -0.00314   0.00360   0.00208   0.00092
  17        2S          0.00046  -0.00235   0.00326   0.00188   0.00358
  18 4   H  1S          0.00093  -0.00314  -0.00360   0.00208   0.00092
  19        2S          0.00046  -0.00235  -0.00326   0.00188   0.00358
                           6         7         8         9        10
                        (A1)--O   (E)--O    (E)--O    (A1)--V   (E)--V
     Eigenvalues --    -0.33339  -0.18751  -0.18751   0.26592   0.37012
   1 1   Al 1S          0.04610  -0.00000   0.00000   0.01469   0.00000
   2        2S         -0.23622   0.00000   0.00000  -0.08720  -0.00000
   3        2PX         0.00000   0.00000   0.13847   0.00000   0.00000
   4        2PY        -0.00000  -0.13847   0.00000   0.00000   0.00397
   5        2PZ         0.04372  -0.00000   0.00000  -0.10330  -0.00000
   6        3S          0.27062  -0.00000   0.00000   0.02646   0.00000
   7        3PX         0.00000   0.00000  -0.21340   0.00000   0.00000
   8        3PY         0.00000   0.21340   0.00000  -0.00000  -0.07855
   9        3PZ        -0.06789   0.00000   0.00000   0.08780   0.00000
  10        4S          0.21328   0.00000   0.00000   0.37590  -0.00000
  11        4PX         0.00000   0.00000  -0.12312   0.00000   0.00000
  12        4PY        -0.00000   0.12312   0.00000  -0.00000   1.47579
  13        4PZ        -0.00717  -0.00000   0.00000   0.85611   0.00000
  14 2   H  1S          0.14457   0.23631   0.00000  -0.03315  -0.07251
  15        2S          0.22361   0.47241   0.00000  -0.04722  -0.89670
  16 3   H  1S          0.14457  -0.11815   0.20465  -0.03315   0.03625
  17        2S          0.22361  -0.23620   0.40912  -0.04722   0.44835
  18 4   H  1S          0.14457  -0.11815  -0.20465  -0.03315   0.03625
  19        2S          0.22361  -0.23620  -0.40912  -0.04722   0.44835
                          11        12        13        14        15
                        (E)--V    (A1)--V   (A1)--V   (E)--V    (E)--V
     Eigenvalues --     0.37012   0.44632   0.56010   0.63016   0.63016
   1 1   Al 1S          0.00000  -0.01051   0.06814   0.00000  -0.00000
   2        2S          0.00000  -0.05341  -0.21625   0.00000   0.00000
   3        2PX         0.00397   0.00000   0.00000  -0.32439   0.00000
   4        2PY         0.00000   0.00000   0.00000   0.00000  -0.32439
   5        2PZ         0.00000  -0.04303  -0.07041   0.00000  -0.00000
   6        3S          0.00000  -0.78260   1.57849   0.00000  -0.00000
   7        3PX        -0.07855   0.00000   0.00000   1.45967   0.00000
   8        3PY         0.00000  -0.00000  -0.00000   0.00000   1.45967
   9        3PZ         0.00000   0.14183   0.24661   0.00000   0.00000
  10        4S          0.00000   2.36456  -0.38725   0.00000  -0.00000
  11        4PX         1.47579   0.00000   0.00000  -0.46835   0.00000
  12        4PY         0.00000   0.00000  -0.00000   0.00000  -0.46835
  13        4PZ         0.00000  -0.77467  -0.55166   0.00000  -0.00000
  14 2   H  1S          0.00000  -0.06257  -0.04329   0.00000   0.01820
  15        2S          0.00000  -0.79628  -0.50782   0.00000  -0.68661
  16 3   H  1S          0.06279  -0.06257  -0.04329  -0.01576  -0.00910
  17        2S          0.77656  -0.79628  -0.50782   0.59462   0.34330
  18 4   H  1S         -0.06279  -0.06257  -0.04329   0.01576  -0.00910
  19        2S         -0.77656  -0.79628  -0.50782  -0.59462   0.34330
                          16        17        18        19
                        (A1)--V   (A1)--V   (E)--V    (E)--V
     Eigenvalues --     0.64691   1.59472   1.61148   1.61148
   1 1   Al 1S         -0.01245  -0.01565   0.00000   0.00000
   2        2S          0.05437   0.08976  -0.00000   0.00000
   3        2PX         0.00000   0.00000   0.00000   0.09681
   4        2PY         0.00000  -0.00000  -0.09681   0.00000
   5        2PZ        -0.32677  -0.03872   0.00000   0.00000
   6        3S         -0.22739  -0.03432   0.00000   0.00000
   7        3PX         0.00000   0.00000   0.00000  -0.13979
   8        3PY        -0.00000   0.00000   0.13979   0.00000
   9        3PZ         1.39319  -0.00021  -0.00000   0.00000
  10        4S         -0.65454   1.29156  -0.00000   0.00000
  11        4PX         0.00000   0.00000   0.00000   0.60481
  12        4PY         0.00000  -0.00000  -0.60481   0.00000
  13        4PZ        -0.65056  -0.39816   0.00000   0.00000
  14 2   H  1S          0.01045   0.80639  -1.13114   0.00000
  15        2S          0.49396  -1.16204   1.29567   0.00000
  16 3   H  1S          0.01045   0.80639   0.56557  -0.97959
  17        2S          0.49396  -1.16204  -0.64784   1.12209
  18 4   H  1S          0.01045   0.80639   0.56557   0.97959
  19        2S          0.49396  -1.16204  -0.64784  -1.12209
     Alpha Density Matrix:
                           1         2         3         4         5
   1 1   Al 1S          1.06059
   2        2S         -0.25727   1.09472
   3        2PX         0.00000  -0.00000   0.97733
   4        2PY        -0.00000   0.00000  -0.00000   0.97733
   5        2PZ        -0.00138   0.00794  -0.00000   0.00000   0.98381
   6        3S         -0.02137   0.01153   0.00000  -0.00000  -0.00448
   7        3PX         0.00000  -0.00000   0.05359   0.00000  -0.00000
   8        3PY        -0.00000   0.00000  -0.00000   0.05359   0.00000
   9        3PZ         0.00415  -0.02107  -0.00000  -0.00000   0.03507
  10        4S          0.03494  -0.15387   0.00000   0.00000  -0.07349
  11        4PX        -0.00000  -0.00000  -0.04745  -0.00000  -0.00000
  12        4PY         0.00000   0.00000   0.00000  -0.04745   0.00000
  13        4PZ         0.01016  -0.05522  -0.00000  -0.00000  -0.12280
  14 2   H  1S          0.00765  -0.03275  -0.00000  -0.03717   0.01286
  15        2S          0.00721  -0.03220  -0.00000  -0.06811   0.03260
  16 3   H  1S          0.00765  -0.03275   0.03219   0.01858   0.01286
  17        2S          0.00721  -0.03220   0.05899   0.03406   0.03260
  18 4   H  1S          0.00765  -0.03275  -0.03219   0.01858   0.01286
  19        2S          0.00721  -0.03220  -0.05899   0.03406   0.03260
                           6         7         8         9        10
   6        3S          0.09708
   7        3PX         0.00000   0.06305
   8        3PY         0.00000  -0.00000   0.06305
   9        3PZ         0.01338   0.00000   0.00000   0.10142
  10        4S          0.12697  -0.00000   0.00000   0.13806   0.34304
  11        4PX         0.00000   0.03349   0.00000   0.00000   0.00000
  12        4PY        -0.00000  -0.00000   0.03349   0.00000  -0.00000
  13        4PZ         0.04461   0.00000  -0.00000   0.18266   0.29531
  14 2   H  1S          0.03518   0.00000   0.05332  -0.01978   0.01920
  15        2S          0.03809   0.00000   0.10372  -0.05298  -0.02027
  16 3   H  1S          0.03518  -0.04618  -0.02666  -0.01978   0.01920
  17        2S          0.03809  -0.08983  -0.05186  -0.05298  -0.02027
  18 4   H  1S          0.03518   0.04618  -0.02666  -0.01978   0.01920
  19        2S          0.03809   0.08983  -0.05186  -0.05298  -0.02027
                          11        12        13        14        15
  11        4PX         0.02398
  12        4PY        -0.00000   0.02398
  13        4PZ         0.00000   0.00000   0.36854
  14 2   H  1S          0.00000   0.03505  -0.03121   0.07355
  15        2S          0.00000   0.06783  -0.09535   0.13316   0.25142
  16 3   H  1S         -0.03035  -0.01752  -0.03121  -0.00505  -0.01918
  17        2S         -0.05874  -0.03392  -0.09535  -0.01918  -0.04384
  18 4   H  1S          0.03035  -0.01752  -0.03121  -0.00505  -0.01918
  19        2S          0.05874  -0.03392  -0.09535  -0.01918  -0.04384
                          16        17        18        19
  16 3   H  1S          0.07355
  17        2S          0.13316   0.25142
  18 4   H  1S         -0.00505  -0.01918   0.07355
  19        2S         -0.01918  -0.04384   0.13316   0.25142
     Beta Density Matrix:
                           1         2         3         4         5
   1 1   Al 1S          1.06009
   2        2S         -0.25453   1.07955
   3        2PX        -0.00000  -0.00000   0.97617
   4        2PY         0.00000   0.00000  -0.00000   0.97617
   5        2PZ         0.00178  -0.00951  -0.00000   0.00000   0.95973
   6        3S         -0.02417   0.02687   0.00000  -0.00000   0.01165
   7        3PX         0.00000   0.00000   0.05706   0.00000  -0.00000
   8        3PY        -0.00000   0.00000  -0.00000   0.05706   0.00000
   9        3PZ        -0.00230   0.01455   0.00000   0.00000   0.08196
  10        4S          0.02156  -0.08030   0.00000  -0.00000   0.00229
  11        4PX        -0.00000   0.00000  -0.04291   0.00000   0.00000
  12        4PY         0.00000  -0.00000   0.00000  -0.04291  -0.00000
  13        4PZ         0.00040   0.00011  -0.00000   0.00000  -0.02823
  14 2   H  1S          0.00848  -0.03729  -0.00000  -0.03678   0.00721
  15        2S          0.01143  -0.05518  -0.00000  -0.06909   0.01328
  16 3   H  1S          0.00848  -0.03729   0.03186   0.01839   0.00721
  17        2S          0.01143  -0.05518   0.05984   0.03455   0.01328
  18 4   H  1S          0.00848  -0.03729  -0.03186   0.01839   0.00721
  19        2S          0.01143  -0.05518  -0.05984   0.03455   0.01328
                           6         7         8         9        10
   6        3S          0.08152
   7        3PX         0.00000   0.05338
   8        3PY        -0.00000   0.00000   0.05338
   9        3PZ        -0.01853  -0.00000   0.00000   0.01214
  10        4S          0.05500  -0.00000   0.00000  -0.01506   0.04643
  11        4PX         0.00000   0.02393   0.00000  -0.00000  -0.00000
  12        4PY         0.00000  -0.00000   0.02393  -0.00000   0.00000
  13        4PZ        -0.00208   0.00000   0.00000  -0.00199  -0.00128
  14 2   H  1S          0.03883   0.00000   0.05006  -0.00973   0.03092
  15        2S          0.06030   0.00000   0.10048  -0.01487   0.04774
  16 3   H  1S          0.03883  -0.04335  -0.02503  -0.00973   0.03092
  17        2S          0.06030  -0.08702  -0.05024  -0.01487   0.04774
  18 4   H  1S          0.03883   0.04335  -0.02503  -0.00973   0.03092
  19        2S          0.06030   0.08702  -0.05024  -0.01487   0.04774
                          11        12        13        14        15
  11        4PX         0.01586
  12        4PY        -0.00000   0.01586
  13        4PZ         0.00000  -0.00000   0.00087
  14 2   H  1S          0.00000   0.02920  -0.00106   0.07677
  15        2S          0.00000   0.05826  -0.00170   0.14399   0.27320
  16 3   H  1S         -0.02529  -0.01460  -0.00106  -0.00702  -0.02349
  17        2S         -0.05046  -0.02913  -0.00170  -0.02349  -0.06157
  18 4   H  1S          0.02529  -0.01460  -0.00106  -0.00702  -0.02349
  19        2S          0.05046  -0.02913  -0.00170  -0.02349  -0.06157
                          16        17        18        19
  16 3   H  1S          0.07677
  17        2S          0.14399   0.27320
  18 4   H  1S         -0.00702  -0.02349   0.07677
  19        2S         -0.02349  -0.06157   0.14399   0.27320
    Full Mulliken population analysis:
                           1         2         3         4         5
   1 1   Al 1S          2.12067
   2        2S         -0.12336   2.17427
   3        2PX         0.00000   0.00000   1.95351
   4        2PY         0.00000   0.00000   0.00000   1.95351
   5        2PZ         0.00000   0.00000   0.00000   0.00000   1.94354
   6        3S         -0.00055   0.00982   0.00000   0.00000   0.00000
   7        3PX         0.00000   0.00000   0.02674  -0.00000   0.00000
   8        3PY         0.00000   0.00000  -0.00000   0.02674   0.00000
   9        3PZ         0.00000   0.00000   0.00000   0.00000   0.02828
  10        4S          0.00143  -0.05111   0.00000   0.00000   0.00000
  11        4PX         0.00000   0.00000  -0.00531   0.00000   0.00000
  12        4PY         0.00000   0.00000   0.00000  -0.00531   0.00000
  13        4PZ         0.00000   0.00000   0.00000   0.00000  -0.00888
  14 2   H  1S          0.00000  -0.00045  -0.00000  -0.00076  -0.00007
  15        2S          0.00022  -0.00920   0.00000  -0.00732  -0.00086
  16 3   H  1S          0.00000  -0.00045  -0.00057  -0.00019  -0.00007
  17        2S          0.00022  -0.00920  -0.00549  -0.00183  -0.00086
  18 4   H  1S          0.00000  -0.00045  -0.00057  -0.00019  -0.00007
  19        2S          0.00022  -0.00920  -0.00549  -0.00183  -0.00086
                           6         7         8         9        10
   6        3S          0.17860
   7        3PX         0.00000   0.11643
   8        3PY         0.00000  -0.00000   0.11643
   9        3PZ         0.00000   0.00000   0.00000   0.11357
  10        4S          0.15025   0.00000   0.00000   0.00000   0.38947
  11        4PX         0.00000   0.03814   0.00000   0.00000   0.00000
  12        4PY         0.00000  -0.00000   0.03814   0.00000   0.00000
  13        4PZ         0.00000   0.00000   0.00000   0.12000   0.00000
  14 2   H  1S          0.01404   0.00000   0.03382   0.00341   0.01058
  15        2S          0.04560   0.00000   0.10411   0.01223   0.01499
  16 3   H  1S          0.01404   0.02536   0.00845   0.00341   0.01058
  17        2S          0.04560   0.07808   0.02603   0.01223   0.01499
  18 4   H  1S          0.01404   0.02536   0.00845   0.00341   0.01058
  19        2S          0.04560   0.07808   0.02603   0.01223   0.01499
                          11        12        13        14        15
  11        4PX         0.03984
  12        4PY         0.00000   0.03984
  13        4PZ         0.00000   0.00000   0.36941
  14 2   H  1S          0.00000   0.01762   0.00313   0.15032
  15        2S          0.00000   0.07124   0.01939   0.17901   0.52462
  16 3   H  1S          0.01321   0.00440   0.00313  -0.00000  -0.00087
  17        2S          0.05343   0.01781   0.01939  -0.00087  -0.01297
  18 4   H  1S          0.01321   0.00440   0.00313  -0.00000  -0.00087
  19        2S          0.05343   0.01781   0.01939  -0.00087  -0.01297
                          16        17        18        19
  16 3   H  1S          0.15032
  17        2S          0.17901   0.52462
  18 4   H  1S         -0.00000  -0.00087   0.15032
  19        2S         -0.00087  -0.01297   0.17901   0.52462
     Gross orbital populations:
                         Total     Alpha     Beta      Spin
   1 1   Al 1S          1.99885   0.99946   0.99939   0.00006
   2        2S          1.98069   0.99128   0.98941   0.00187
   3        2PX         1.96282   0.98147   0.98135   0.00012
   4        2PY         1.96282   0.98147   0.98135   0.00012
   5        2PZ         1.96013   0.98308   0.97705   0.00603
   6        3S          0.51705   0.27760   0.23945   0.03815
   7        3PX         0.38819   0.20373   0.18446   0.01926
   8        3PY         0.38819   0.20373   0.18446   0.01926
   9        3PZ         0.30878   0.26673   0.04205   0.22469
  10        4S          0.56675   0.39414   0.17261   0.22153
  11        4PX         0.20596   0.11534   0.09062   0.02472
  12        4PY         0.20596   0.11534   0.09062   0.02472
  13        4PZ         0.54809   0.54887  -0.00078   0.54965
  14 2   H  1S          0.40889   0.20122   0.20767  -0.00645
  15        2S          0.92635   0.44470   0.48165  -0.03695
  16 3   H  1S          0.40889   0.20122   0.20767  -0.00645
  17        2S          0.92635   0.44470   0.48165  -0.03695
  18 4   H  1S          0.40889   0.20122   0.20767  -0.00645
  19        2S          0.92635   0.44470   0.48165  -0.03695
          Condensed to atoms (all electrons):
               1          2          3          4
     1  Al  11.999143   0.331710   0.331710   0.331710
     2  H    0.331710   1.032954  -0.014710  -0.014710
     3  H    0.331710  -0.014710   1.032954  -0.014710
     4  H    0.331710  -0.014710  -0.014710   1.032954
          Atomic-Atomic Spin Densities.
               1          2          3          4
     1  Al   1.157562  -0.009124  -0.009124  -0.009124
     2  H   -0.009124  -0.038987   0.002357   0.002357
     3  H   -0.009124   0.002357  -0.038987   0.002357
     4  H   -0.009124   0.002357   0.002357  -0.038987
 Mulliken charges and spin densities:
               1          2
     1  Al   0.005729   1.130190
     2  H   -0.335243  -0.043397
     3  H   -0.335243  -0.043397
     4  H   -0.335243  -0.043397
 Sum of Mulliken charges =  -1.00000   1.00000
 Mulliken charges and spin densities with hydrogens summed into heavy atoms:
               1          2
     1  Al  -1.000000   1.000000
 Electronic spatial extent (au):  <R**2>=             79.4713
 Charge=             -1.0000 electrons
 Dipole moment (field-independent basis, Debye):
    X=              0.0000    Y=             -0.0000    Z=              0.4027  Tot=              0.4027
 Quadrupole moment (field-independent basis, Debye-Ang):
   XX=            -24.7673   YY=            -24.7673   ZZ=            -23.4591
   XY=              0.0000   XZ=             -0.0000   YZ=             -0.0000
 Traceless Quadrupole moment (field-independent basis, Debye-Ang):
   XX=             -0.4361   YY=             -0.4361   ZZ=              0.8722
   XY=              0.0000   XZ=             -0.0000   YZ=             -0.0000
 Octapole moment (field-independent basis, Debye-Ang**2):
  XXX=              0.0000  YYY=             -4.6378  ZZZ=             -5.9074  XYY=             -0.0000
  XXY=              4.6378  XXZ=              1.0458  XZZ=              0.0000  YZZ=              0.0000
  YYZ=              1.0458  XYZ=             -0.0000
 Hexadecapole moment (field-independent basis, Debye-Ang**3):
 XXXX=            -80.2659 YYYY=            -80.2659 ZZZZ=            -69.4567 XXXY=              0.0000
 XXXZ=             -0.0000 YYYX=              0.0000 YYYZ=              1.6752 ZZZX=             -0.0000
 ZZZY=             -0.0000 XXYY=            -26.7553 XXZZ=            -24.4647 YYZZ=            -24.4647
 XXYZ=             -1.6752 YYXZ=              0.0000 ZZXY=              0.0000
 N-N= 1.394198100013D+01 E-N=-6.111227629703D+02  KE= 2.423366888921D+02
 Symmetry A'   KE= 2.216381161088D+02
 Symmetry A"   KE= 2.069857278322D+01
 Symmetry A'   SP= 1.000000000000D+00
 Symmetry A"   SP= 4.576200529627D-15
 Orbital energies and kinetic energies (alpha):
                                 1                 2
   1         (A1)--O         -57.782163         78.664020
   2         (A1)--O          -4.598765         11.073797
   3         (A1)--O          -2.905270          9.731534
   4         (E)--O           -2.900980          9.717503
   5         (E)--O           -2.900980          9.717503
   6         (A1)--O          -0.362304          0.747030
   7         (E)--O           -0.190025          0.630457
   8         (E)--O           -0.190025          0.630457
   9         (A1)--O          -0.027377          0.523089
  10         (E)--V            0.349661          0.319122
  11         (E)--V            0.349661          0.319122
  12         (A1)--V           0.426273          0.415484
  13         (A1)--V           0.516221          1.299433
  14         (E)--V            0.611510          1.525095
  15         (E)--V            0.611510          1.525095
  16         (A1)--V           0.615970          1.525896
  17         (A1)--V           1.594750          2.346299
  18         (E)--V            1.611443          2.379492
  19         (E)--V            1.611443          2.379492
 Orbital energies and kinetic energies (beta):
                                 1                 2
   1         (A1)--O         -57.779038         78.665055
   2         (A1)--O          -4.593374         11.074656
   3         (E)--O           -2.898377          9.721382
   4         (E)--O           -2.898377          9.721382
   5         (A1)--O          -2.892888          9.728242
   6         (A1)--O          -0.333386          0.732121
   7         (E)--O           -0.187509          0.629231
   8         (E)--O           -0.187509          0.629231
   9         (A1)--V           0.265918          0.322470
  10         (E)--V            0.370118          0.303963
  11         (E)--V            0.370118          0.303963
  12         (A1)--V           0.446319          0.410384
  13         (A1)--V           0.560103          1.453008
  14         (E)--V            0.630164          1.539646
  15         (E)--V            0.630164          1.539646
  16         (A1)--V           0.646907          1.598563
  17         (A1)--V           1.594721          2.342082
  18         (E)--V            1.611477          2.377447
  19         (E)--V            1.611477          2.377447
 Total kinetic energy from orbitals= 2.423366888921D+02
                          Isotropic Fermi Contact Couplings
        Atom                 a.u.       MegaHertz       Gauss      10(-4) cm-1
     1  Al(27)             0.22730     264.95172      94.54136      88.37838
     2  H(1)              -0.00525     -23.45191      -8.36823      -7.82272
     3  H(1)              -0.00525     -23.45191      -8.36823      -7.82272
     4  H(1)              -0.00525     -23.45191      -8.36823      -7.82272
 --------------------------------------------------------
       Center         ----  Spin Dipole Couplings  ----
                      3XX-RR        3YY-RR        3ZZ-RR
 --------------------------------------------------------
     1   Atom       -0.262005     -0.262005      0.524010
     2   Atom       -0.011252      0.003038      0.008214
     3   Atom       -0.000534     -0.007679      0.008214
     4   Atom       -0.000534     -0.007679      0.008214
 --------------------------------------------------------
                        XY            XZ            YZ
 --------------------------------------------------------
     1   Atom        0.000000      0.000000      0.000000
     2   Atom       -0.000000      0.000000     -0.006111
     3   Atom        0.006188      0.005293      0.003056
     4   Atom       -0.006188     -0.005293      0.003056
 --------------------------------------------------------


 ---------------------------------------------------------------------------------
              Anisotropic Spin Dipole Couplings in Principal Axis System
 ---------------------------------------------------------------------------------

       Atom             a.u.   MegaHertz   Gauss  10(-4) cm-1        Axes

              Baa    -0.2620   -36.454   -13.008   -12.160 -0.0014  1.0000 -0.0000
     1 Al(27) Bbb    -0.2620   -36.454   -13.008   -12.160  1.0000  0.0014 -0.0000
              Bcc     0.5240    72.909    26.016    24.320  0.0000  0.0000  1.0000
 
              Baa    -0.0113    -6.003    -2.142    -2.002  1.0000  0.0000  0.0000
     2 H(1)   Bbb    -0.0010    -0.539    -0.192    -0.180 -0.0000  0.8336  0.5523
              Bcc     0.0123     6.543     2.335     2.182  0.0000 -0.5523  0.8336
 
              Baa    -0.0113    -6.003    -2.142    -2.002 -0.5000  0.8660 -0.0000
     3 H(1)   Bbb    -0.0010    -0.539    -0.192    -0.180  0.7220  0.4168 -0.5523
              Bcc     0.0123     6.543     2.335     2.182  0.4783  0.2762  0.8336
 
              Baa    -0.0113    -6.003    -2.142    -2.002  0.5000  0.8660 -0.0000
     4 H(1)   Bbb    -0.0010    -0.539    -0.192    -0.180  0.7220 -0.4168  0.5523
              Bcc     0.0123     6.543     2.335     2.182 -0.4783  0.2762  0.8336
 

 ---------------------------------------------------------------------------------

 1\1\GINC-IISERK51\SP\UHF\3-21G\Al1H3(1-,2)\GAUSSIAN\17-Jul-2025\0\\# h
 f/3-21g pop=full geom=connectivity\\Title Card Required\\-1,2\Al,0,0.,
 0.,0.096875\H,0,0.,1.461354,-0.419792\H,0,-1.26557,-0.730677,-0.419792
 \H,0,1.26557,-0.730677,-0.419792\\Version=EM64L-G16RevB.01\State=2-A1\
 HF=-242.2652288\S2=0.753857\S2-1=0.\S2A=0.750011\RMSD=3.948e-09\Dipole
 =0.,0.,0.1584277\Quadrupole=-0.3242214,-0.3242214,0.6484428,0.,0.,0.\P
 G=C03V [C3(Al1),3SGV(H1)]\\@


 WHAT, THEN, IS TIME?  IF NO ONE ASKS ME, I KNOW WHAT IT IS.
 IF I WISH TO EXPLAIN WHAT IT IS TO HIM WHO ASKS ME, I DO NOT KNOW.
                                   -- ST. AUGUSTINE (FIFTH CENTURY)
 Job cpu time:       0 days  0 hours  0 minutes  0.4 seconds.
 Elapsed time:       0 days  0 hours  0 minutes  0.4 seconds.
 File lengths (MBytes):  RWF=      6 Int=      0 D2E=      0 Chk=      1 Scr=      1
 Normal termination of Gaussian 16 at Thu Jul 17 18:06:47 2025.
