%chk=BCl3_pyramid_sp.chk
# hf/3-21g pop=full geom=connectivity

BCl3 pyramid opt

0 1
 B                  0.00000000    0.00000000    0.00000000
 Cl                -0.38470300    1.56782000   -1.02248900
 Cl                -0.44788000   -1.55202700   -1.02086000
 Cl                -1.02827300    0.02166300    1.61050500

 1 2 1.0 3 1.0 4 1.0
 2
 3
 4

