%chk=cycloheptatrienyl_cation_opt.chk
# opt freq am1 pop=full geom=connectivity

Optimisation

1 1
 C                  0.53117600    1.23052300   -0.00007900
 C                 -0.80889500    1.54623100    0.00014400
 C                 -1.91187400    0.70026200   -0.00010300
 C                  1.15595900   -0.01713300   -0.00066400
 C                 -1.92435500   -0.67511300    0.00015300
 C                  0.51208800   -1.25080500   -0.00025100
 C                 -0.83711500   -1.53910200    0.00018300
 H                  1.19767000    2.07299200   -0.00012000
 H                 -1.03446900    2.59580900    0.00028000
 H                 -2.87028800    1.18308600   -0.00041200
 H                 -2.89118800   -1.14065800    0.00038600
 H                  1.15822600   -2.10732200   -0.00051000
 H                 -1.08152900   -2.58455300    0.00019100
 C                  2.67550400   -0.00333300    0.00017600
 H                  3.04200200    0.52766800   -0.87148300
 H                  3.03978000    0.50610000    0.88577000
 H                  3.08487400   -1.00230700   -0.01145100

 1 2 2.0 4 1.5 8 1.0
 2 3 1.5 9 1.0
 3 5 2.0 10 1.0
 4 6 1.5 14 1.0
 5 7 1.5 11 1.0
 6 7 2.0 12 1.0
 7 13 1.0
 8
 9
 10
 11
 12
 13
 14 15 1.0 16 1.0 17 1.0
 15
 16
 17

